 vasp.5.4.1 24Jun15 (build Jan 18 2016 12:20:36) complex

 executed on           IFC91_ompi date 2018.02.24  17:46:31

 INCAR:
 POTCAR:    PAW_PBE Li_sv 10Sep2004
 POTCAR:    PAW_PBE Mn_pv 02Aug2007
 POTCAR:    PAW_PBE Ni_pv 06Sep2000
 POTCAR:    PAW_PBE O 08Apr2002

 POTCAR:    PAW_PBE Li_sv 10Sep2004
   VRHFIN =Li: 1s2s2p

   TITEL  = PAW_PBE Li_sv 10Sep2004
   POMASS =    7.010; ZVAL   =    3.000    mass and valenz
   ENMAX  =  499.034; ENMIN  =  374.276 eV

 POTCAR:    PAW_PBE Mn_pv 02Aug2007
   VRHFIN =Mn: 3p4s3d

   TITEL  = PAW_PBE Mn_pv 02Aug2007
   POMASS =   54.938; ZVAL   =   13.000    mass and valenz
   ENMAX  =  269.864; ENMIN  =  202.398 eV

 POTCAR:    PAW_PBE Ni_pv 06Sep2000
   VRHFIN =Ni:

   TITEL  = PAW_PBE Ni_pv 06Sep2000
   POMASS =   58.690; ZVAL   =   16.000    mass and valenz
   ENMAX  =  367.986; ENMIN  =  275.989 eV

 POTCAR:    PAW_PBE O 08Apr2002
   VRHFIN =O: s2p4

   TITEL  = PAW_PBE O 08Apr2002
   POMASS =   16.000; ZVAL   =    6.000    mass and valenz
   ENMAX  =  400.000; ENMIN  =  300.000 eV

 Optimization of the real space projectors (new method)

 maximal supplied QI-value         = 22.11
 optimisation between [QCUT,QGAM] = [ 11.50, 23.22] = [ 37.02,150.92] Ry
 Optimized for a Real-space Cutoff    1.08 Angstroem

   l    n(q)    QCUT    max X(q) W(low)/X(q) W(high)/X(q)  e(spline)
   0      7    11.497    10.506    0.36E-04    0.62E-04    0.14E-07
   0      7    11.497     8.367    0.65E-04    0.14E-03    0.28E-07
   1      7    11.497     8.983    0.21E-03    0.43E-03    0.90E-07
 Optimization of the real space projectors (new method)

[...]

   l    n(q)    QCUT    max X(q) W(low)/X(q) W(high)/X(q)  e(spline)
   1      9    11.527     2.836    0.16E-04    0.30E-04    0.95E-07
   1      9    11.527     4.023    0.73E-04    0.81E-04    0.21E-06
   2      9    11.527    73.368    0.15E-03    0.29E-03    0.28E-06
   2      9    11.527    69.010    0.15E-03    0.29E-03    0.29E-06
   0      9    11.527    54.797    0.43E-04    0.28E-04    0.85E-07
   0      9    11.527    24.266    0.33E-04    0.24E-04    0.75E-07
 Optimization of the real space projectors (new method)

 maximal supplied QI-value         = 24.76
 optimisation between [QCUT,QGAM] = [ 11.64, 23.27] = [ 37.91,151.63] Ry
 Optimized for a Real-space Cutoff    1.14 Angstroem

   l    n(q)    QCUT    max X(q) W(low)/X(q) W(high)/X(q)  e(spline)
   0      8    11.635    20.381    0.10E-03    0.33E-03    0.24E-06
   0      8    11.635    15.268    0.11E-03    0.35E-03    0.26E-06
   1      7    11.635     5.964    0.24E-03    0.31E-03    0.30E-06
   1      7    11.635     5.382    0.22E-03    0.25E-03    0.26E-06
  PAW_PBE Li_sv 10Sep2004               :
  PAW_PBE Mn_pv 02Aug2007               :
  PAW_PBE Ni_pv 06Sep2000               :
  PAW_PBE O 08Apr2002                   :

 POSCAR: Li2 Mn1 Ni1 O4
  positions in direct lattice
 exchange correlation table for  LEXCH =        8
   RHO(1)=    0.500       N(1)  =     2000
   RHO(2)=  100.500       N(2)  =     4000

 ion  position               nearest neighbor table
   1  0.000  0.000  0.000-   6 2.07   8 2.07   6 2.07   8 2.07   7 2.08   5 2.08
   2  0.500  0.500  0.000-   5 2.07   7 2.07   5 2.07   7 2.07   6 2.08   8 2.08
   3  0.000  0.500  0.500-   6 2.07   8 2.07   6 2.07   8 2.07   7 2.08   5 2.08
   4  0.500  0.000  0.500-   5 2.07   7 2.07   5 2.07   7 2.07   6 2.08   8 2.08
   5  0.000  0.750  0.750-   2 2.07   4 2.07   2 2.07   4 2.07   3 2.08   1 2.08
   6  0.500  0.750  0.250-   1 2.07   3 2.07   1 2.07   3 2.07   2 2.08   4 2.08
   7  0.000  0.250  0.250-   2 2.07   4 2.07   2 2.07   4 2.07   3 2.08   1 2.08
   8  0.500  0.250  0.750-   1 2.07   3 2.07   1 2.07   3 2.07   2 2.08   4 2.08

IMPORTANT INFORMATION: All symmetrisations will be switched off!
NOSYMM: (Re-)initialisation of all symmetry stuff for point group C_1.

 KPOINTS: pymatgen generated KPOINTS with grid den

Automatic generation of k-mesh.
Space group operators:
 irot       det(A)        alpha          n_x          n_y          n_z        tau_x        tau_y        tau_z
    1     1.000000     0.000001     1.000000     0.000000     0.000000     0.000000     0.000000     0.000000

 Subroutine IBZKPT returns following result:

 Found    144 irreducible k-points:

 Following reciprocal coordinates:
            Coordinates               Weight
  0.062500  0.083333  0.083333      2.000000
  0.187500  0.083333  0.083333      2.000000
  0.312500  0.083333  0.083333      2.000000
  0.437500  0.083333  0.083333      2.000000
 -0.437500  0.083333  0.083333      2.000000
 -0.312500  0.083333  0.083333      2.000000
 -0.187500  0.083333  0.083333      2.000000
 -0.062500  0.083333  0.083333      2.000000
  0.062500  0.250000  0.083333      2.000000
  0.187500  0.250000  0.083333      2.000000
  0.312500  0.250000  0.083333      2.000000
  0.437500  0.250000  0.083333      2.000000
 -0.437500  0.250000  0.083333      2.000000
 -0.312500  0.250000  0.083333      2.000000
 -0.187500  0.250000  0.083333      2.000000
 -0.062500  0.250000  0.083333      2.000000
  0.062500  0.416667  0.083333      2.000000
  0.187500  0.416667  0.083333      2.000000
  0.312500  0.416667  0.083333      2.000000
  0.437500  0.416667  0.083333      2.000000
 -0.437500  0.416667  0.083333      2.000000
 -0.312500  0.416667  0.083333      2.000000
 -0.187500  0.416667  0.083333      2.000000
 -0.062500  0.416667  0.083333      2.000000
  0.062500 -0.416667  0.083333      2.000000
  0.187500 -0.416667  0.083333      2.000000
  0.312500 -0.416667  0.083333      2.000000
  0.437500 -0.416667  0.083333      2.000000
 -0.437500 -0.416667  0.083333      2.000000
 -0.312500 -0.416667  0.083333      2.000000
 -0.187500 -0.416667  0.083333      2.000000
 -0.062500 -0.416667  0.083333      2.000000
  0.062500 -0.250000  0.083333      2.000000
  0.187500 -0.250000  0.083333      2.000000
  0.312500 -0.250000  0.083333      2.000000
  0.437500 -0.250000  0.083333      2.000000
 -0.437500 -0.250000  0.083333      2.000000
 -0.312500 -0.250000  0.083333      2.000000
 -0.187500 -0.250000  0.083333      2.000000
 -0.062500 -0.250000  0.083333      2.000000
  0.062500 -0.083333  0.083333      2.000000
  0.187500 -0.083333  0.083333      2.000000
  0.312500 -0.083333  0.083333      2.000000
  0.437500 -0.083333  0.083333      2.000000
 -0.437500 -0.083333  0.083333      2.000000
 -0.312500 -0.083333  0.083333      2.000000
 -0.187500 -0.083333  0.083333      2.000000
 -0.062500 -0.083333  0.083333      2.000000
  0.062500  0.083333  0.250000      2.000000
  0.187500  0.083333  0.250000      2.000000
  0.312500  0.083333  0.250000      2.000000
  0.437500  0.083333  0.250000      2.000000
 -0.437500  0.083333  0.250000      2.000000
 -0.312500  0.083333  0.250000      2.000000
 -0.187500  0.083333  0.250000      2.000000
 -0.062500  0.083333  0.250000      2.000000
  0.062500  0.250000  0.250000      2.000000
  0.187500  0.250000  0.250000      2.000000
  0.312500  0.250000  0.250000      2.000000
  0.437500  0.250000  0.250000      2.000000
[...]
  0.187500 -0.250000  0.416667      2.000000
  0.312500 -0.250000  0.416667      2.000000
  0.437500 -0.250000  0.416667      2.000000
 -0.437500 -0.250000  0.416667      2.000000
 -0.312500 -0.250000  0.416667      2.000000
 -0.187500 -0.250000  0.416667      2.000000
 -0.062500 -0.250000  0.416667      2.000000
  0.062500 -0.083333  0.416667      2.000000
  0.187500 -0.083333  0.416667      2.000000
  0.312500 -0.083333  0.416667      2.000000
  0.437500 -0.083333  0.416667      2.000000
 -0.437500 -0.083333  0.416667      2.000000
 -0.312500 -0.083333  0.416667      2.000000
 -0.187500 -0.083333  0.416667      2.000000
 -0.062500 -0.083333  0.416667      2.000000

 Following cartesian coordinates:
            Coordinates               Weight
  0.021440  0.016281  0.011623      2.000000
  0.064319  0.016281  0.011623      2.000000
  0.107199  0.016281  0.011623      2.000000
  0.150078  0.016281  0.011623      2.000000
 -0.150078  0.016281  0.011623      2.000000
 -0.107199  0.016281  0.011623      2.000000
 -0.064319  0.016281  0.011623      2.000000
 -0.021440  0.016281  0.011623      2.000000
  0.021440  0.048843 -0.000020      2.000000
  0.064319  0.048843 -0.000020      2.000000
  0.107199  0.048843 -0.000020      2.000000
  0.150078  0.048843 -0.000020      2.000000
 -0.150078  0.048843 -0.000020      2.000000
 -0.107199  0.048843 -0.000020      2.000000
 -0.064319  0.048843 -0.000020      2.000000
 -0.021440  0.048843 -0.000020      2.000000
  0.021440  0.081404 -0.011664      2.000000
  0.064319  0.081404 -0.011664      2.000000
  0.107199  0.081404 -0.011664      2.000000
  0.150078  0.081404 -0.011664      2.000000
 -0.150078  0.081404 -0.011664      2.000000
 -0.107199  0.081404 -0.011664      2.000000
 -0.064319  0.081404 -0.011664      2.000000
 -0.021440  0.081404 -0.011664      2.000000
  0.021440 -0.081404  0.046555      2.000000
  0.064319 -0.081404  0.046555      2.000000
  0.107199 -0.081404  0.046555      2.000000
  0.150078 -0.081404  0.046555      2.000000
 -0.150078 -0.081404  0.046555      2.000000
 -0.107199 -0.081404  0.046555      2.000000
 -0.064319 -0.081404  0.046555      2.000000
 -0.021440 -0.081404  0.046555      2.000000
  0.021440 -0.048843  0.034911      2.000000
  0.064319 -0.048843  0.034911      2.000000
  0.107199 -0.048843  0.034911      2.000000
  0.150078 -0.048843  0.034911      2.000000
 -0.150078 -0.048843  0.034911      2.000000
 -0.107199 -0.048843  0.034911      2.000000
 -0.064319 -0.048843  0.034911      2.000000
 -0.021440 -0.048843  0.034911      2.000000
  0.021440 -0.016281  0.023267      2.000000
  0.064319 -0.016281  0.023267      2.000000
  0.107199 -0.016281  0.023267      2.000000
  0.150078 -0.016281  0.023267      2.000000
 -0.150078 -0.016281  0.023267      2.000000
 -0.107199 -0.016281  0.023267      2.000000
 -0.064319 -0.016281  0.023267      2.000000
 -0.021440 -0.016281  0.023267      2.000000
  0.021440  0.016281  0.046514      2.000000
  0.064319  0.016281  0.046514      2.000000
  0.107199  0.016281  0.046514      2.000000
  0.150078  0.016281  0.046514      2.000000
 -0.150078  0.016281  0.046514      2.000000
 -0.107199  0.016281  0.046514      2.000000
 -0.064319  0.016281  0.046514      2.000000
 -0.021440  0.016281  0.046514      2.000000
  0.021440  0.048843  0.034870      2.000000
  0.064319  0.048843  0.034870      2.000000
  0.107199  0.048843  0.034870      2.000000
  0.150078  0.048843  0.034870      2.000000
[...]
  0.064319 -0.048843  0.104692      2.000000
  0.107199 -0.048843  0.104692      2.000000
  0.150078 -0.048843  0.104692      2.000000
 -0.150078 -0.048843  0.104692      2.000000
 -0.107199 -0.048843  0.104692      2.000000
 -0.064319 -0.048843  0.104692      2.000000
 -0.021440 -0.048843  0.104692      2.000000
  0.021440 -0.016281  0.093049      2.000000
  0.064319 -0.016281  0.093049      2.000000
  0.107199 -0.016281  0.093049      2.000000
  0.150078 -0.016281  0.093049      2.000000
 -0.150078 -0.016281  0.093049      2.000000
 -0.107199 -0.016281  0.093049      2.000000
 -0.064319 -0.016281  0.093049      2.000000
 -0.021440 -0.016281  0.093049      2.000000

[...]
  weight for this iteration     100.00

[...]

 eigenvalues of (default mixing * dielectric matrix)
  average eigenvalue GAMMA=   0.0407
  0.0407

[...]

 average (electrostatic) potential at core
  the test charge radii are     0.7079  0.9577  0.8614  0.7215
  (the norm of the test charge is              1.0000)
       1 -58.4832       2 -57.7701       3 -71.7936       4 -82.1799       5 -69.6719
       6 -70.6102       7 -69.6719       8 -70.6102

 E-fermi :   4.2699     XC(G=0): -11.5277     alpha+bet :-13.5598

 spin component 1

 k-point     1 :       0.0625    0.0833    0.0833
  band No.  band energies     occupation
      1     -59.6653      1.00000
      2     -59.5579      1.00000
      3     -59.5320      1.00000
      4     -42.9579      1.00000
      5     -42.9312      1.00000
      6     -42.8416      1.00000
      7     -39.4113      1.00000
      8     -38.6992      1.00000
      9     -14.2330      1.00000
     10     -13.4113      1.00000
     11     -12.7443      1.00000
     12     -12.5337      1.00000
     13      -1.7410      1.00000
     14      -1.5057      1.00000
     15      -1.3651      1.00000
     16      -1.3110      1.00000
     17      -0.6654      1.00000
     18       0.0868      1.00000
     19       0.5965      1.00000
     20       0.7042      1.00000
     21       1.2915      1.00000
     22       1.5918      1.00000
     23       1.7519      1.00000
     24       1.9234      1.00000
     25       2.9353      1.00000
     26       3.2465      1.00000
     27       3.2856      1.00000
     28       3.9402      1.00000
     29       4.1968      1.01306
     30       6.2235      0.00000
     31       7.2187      0.00000
     32       7.2645      0.00000
     33       7.5390      0.00000
     34       9.6319      0.00000
     35      10.9150      0.00000

[...]

 soft charge-density along one line, spin component           1
         0         1         2         3         4         5         6         7         8         9
 total charge-density along one line

[...]

------------------------ aborting loop because EDIFF is reached ----------------------------------------

 total charge

# of ion     s       p       d       tot
  1        2.018   0.051   0.000   2.069
  2        2.021   0.058   0.000   2.079
  3        0.283   6.309   4.739  11.331
  4        0.227   6.206   7.927  14.360
  5        1.561   3.422   0.000   4.983
  6        1.566   3.411   0.000   4.977
  7        1.561   3.422   0.000   4.983
  8        1.566   3.411   0.000   4.977
tot       10.804  26.288  12.666  49.758

 magnetization (x)

[...]

  FORCE on cell =-STRESS in cart. coord.  units (eV):
  Direction    XX          YY          ZZ          XY          YZ          ZX
  Alpha Z   253.34086   253.34086   253.34086
  Ewald   -1182.75378 -1226.48047 -2389.70856    -0.00000   -16.81989    -0.00000
  Hartree  1139.92381  1098.66158   163.04420     0.00603    -9.81472    -0.01000
  E(xc)    -343.94880  -343.96197  -344.09212     0.00004    -0.03902    -0.00007
  Local    -923.12132  -838.70765  1258.20509    -0.01333    26.04206     0.02605
  n-local  -251.04755  -250.83028  -251.27872    -0.00060     0.27894     0.00237
  augment   341.85764   341.96069   341.82313     0.00530     0.05836    -0.00887
  Kinetic   964.52723   963.06398   965.31677     0.00479     0.17223    -0.01519
  Fock        0.00000     0.00000     0.00000     0.00000     0.00000     0.00000
  Total      -1.22190    -2.95325    -3.34935     0.00224    -0.12205    -0.00572
  in kB     -27.46661   -66.38481   -75.28857     0.05044    -2.74339    -0.12854

 VOLUME and BASIS-vectors are now :
  energy-cutoff  :      520.00
  volume of cell :       71.28
      direct lattice vectors                 reciprocal lattice vectors
     2.915150000  0.000000000  0.000000000     0.343035521  0.000000000  0.000000000
     0.000000000  5.118490000  0.000000000     0.000000000  0.195370119 -0.069863274
     0.000000000  1.708168000  4.776830000     0.000000000  0.000000000  0.209343854

[...]

 FORCES acting on ions
    electron-ion (+dipol)            ewald-force                    non-local-force                 convergence-correction
   -.300E-04 -.582E-04 0.199E-04   0.131E-15 0.000E+00 0.000E+00   0.154E-04 0.426E-04 -.147E-04   -.423E-05 -.429E-05 0.703E-05
   -.389E-04 -.421E-04 -.325E-04   0.345E-14 0.000E+00 -.711E-14   0.179E-04 0.298E-04 0.165E-04   -.311E-05 -.938E-05 0.852E-05
   -.534E-05 0.576E-04 0.301E-04   0.209E-13 -.284E-13 -.284E-13   -.247E-05 0.621E-05 0.408E-05   -.273E-05 -.697E-04 -.168E-04
   -.254E-04 -.202E-04 -.742E-06   -.235E-13 -.853E-13 0.000E+00   0.138E-04 -.118E-03 0.322E-04   0.139E-04 0.117E-03 -.426E-04
   0.723E-03 0.438E+02 -.311E+03   0.416E-13 -.415E+02 0.323E+03   0.724E-04 -.351E+01 -.126E+02   0.192E-04 -.470E-02 -.127E-01
   -.407E-02 0.386E+02 0.281E+03   -.221E-13 -.357E+02 -.295E+03   0.671E-02 -.412E+01 0.149E+02   -.403E-04 -.948E-02 0.231E-01
   -.804E-03 -.438E+02 0.311E+03   -.484E-13 0.415E+02 -.323E+03   0.837E-04 0.351E+01 0.126E+02   0.191E-05 0.470E-02 0.127E-01
   0.407E-02 -.386E+02 -.281E+03   0.140E-13 0.357E+02 0.295E+03   -.670E-02 0.412E+01 -.149E+02   0.534E-04 0.949E-02 -.231E-01
   -.178E-03 0.146E-03 -.218E-03   -.137E-13 -.284E-13 0.000E+00   0.210E-03 -.245E-03 0.321E-03   0.380E-04 0.503E-04 -.676E-04

 POSITION                                       TOTAL-FORCE (eV/Angst)
      0.00000      0.00000      0.00000        -0.000028     -0.000014      0.000008
      1.45758      2.55925      0.00000        -0.000033     -0.000016     -0.000012
      0.00000      3.41333      2.38842        -0.000019      0.000000      0.000013
      1.45758      0.85408      2.38842        -0.000006     -0.000015     -0.000016
      0.00000      5.11999      3.58262         0.000806     -1.255961     -1.350397
      1.45758      4.26591      1.19421         0.002592     -1.245392      1.801898
      0.00000      1.70666      1.19421        -0.000728      1.255972      1.350422
      1.45758      2.56075      3.58262        -0.002585      1.245426     -1.801916
    total drift:                                0.000070     -0.000048      0.000035

  FREE ENERGIE OF THE ION-ELECTRON SYSTEM (eV)
  free  energy   TOTEN  =       -45.57543949 eV

  energy  without entropy=      -45.57543949  energy(sigma->0) =      -45.57543949

[...]

 d Force = 0.5003565E+00[ 0.225E+00, 0.776E+00]  d Energy = 0.5744894E+00-0.741E-01
 d Force =-0.9188144E+02[-0.102E+03,-0.822E+02]  d Ewald  =-0.1244973E+02-0.794E+02

 Steepest descent step on ions:
 trial-energy change:   -0.574489  1 .order   -0.542539   -0.920508   -0.164570
  (g-gl).g = 0.921E+00      g.g   = 0.921E+00  gl.gl    = 0.000E+00
 g(Force)  = 0.791E+00   g(Stress)= 0.129E+00 ortho     = 0.000E+00
 gamma     =   0.00000
 trial     =   1.00000
 opt step  =   1.16796  (harmonic =   1.21770) maximal distance =0.10152844
 next E    =   -46.163901   (d E  =  -0.58846)

[...]

 d Force = 0.1133791E-01[-0.434E-01, 0.661E-01]  d Energy = 0.8197916E-01-0.706E-01
 d Force =-0.3371693E+02[-0.353E+02,-0.321E+02]  d Ewald  =-0.1046417E+03 0.709E+02

 Conjugate gradient step on ions:
 trial-energy change:   -0.081979  1 .order   -0.103499   -0.210372    0.003374
  (g-gl).g = 0.260E+00      g.g   = 0.216E+00  gl.gl    = 0.921E+00
 g(Force)  = 0.347E-01   g(Stress)= 0.181E+00 ortho     =-0.443E-01
 gamma     =   0.28283
 trial     =   1.03359
 opt step  =   0.99462  (harmonic =   1.01727) maximal distance =0.04006868
 next E    =   -46.242114   (d E  =  -0.08204)

[...]

 d Force = 0.1525250E-02[ 0.144E-02, 0.161E-02]  d Energy = 0.8665257E-03 0.659E-03
 d Force = 0.1308937E+01[ 0.131E+01, 0.131E+01]  d Ewald  = 0.3946706E+01-0.264E+01

[...]

 d Force = 0.5644931E-02[-0.530E-03, 0.118E-01]  d Energy = 0.1216776E-01-0.652E-02
 d Force = 0.5516803E+01[ 0.539E+01, 0.565E+01]  d Ewald  =-0.2096127E+02 0.265E+02

[...]

 d Force = 0.1566293E-04[-0.622E-05, 0.375E-04]  d Energy = 0.2339325E-03-0.218E-03
 d Force =-0.3819157E+00[-0.383E+00,-0.381E+00]  d Ewald  = 0.1498580E+01-0.188E+01

[...]

 Conjugate gradient step on ions:
 trial-energy change:   -0.003396  1 .order   -0.003156   -0.005949   -0.000363
  (g-gl).g = 0.694E-02      g.g   = 0.613E-02  gl.gl    = 0.285E-01
 g(Force)  = 0.214E-02   g(Stress)= 0.399E-02 ortho     =-0.103E-02
 gamma     =   0.24370
 trial     =   1.01114
 opt step  =   1.07690  (harmonic =   1.07690) maximal distance =0.00833996
 next E    =   -46.258485   (d E  =  -0.00317)

 FEWALD executed in parallel

 real space projection operators:
  max/ min on nodes  :        130.17         95.57

[...]

 eigenvalue-minimisations  : 10209
 total energy-change (2. order) : 0.1991893E-05  (-0.9868260E-05)
 number of electron      59.0000001 magnetization      -0.9999999
 augmentation part       21.1600160 magnetization      -0.8441109

[...]

 Broyden mixing:
  rms(total) = 0.16865E-02    rms(broyden)= 0.16839E-02
  rms(prec ) = 0.19726E-02
  weight for this iteration     100.00

 eigenvalues of (default mixing * dielectric matrix)
  average eigenvalue GAMMA=   0.9886
  1.9250  1.1239  0.5221  0.3834

[...]

----------------------------------------- Iteration    9(   6)  ---------------------------------------

[...]

 eigenvalue-minimisations  :  4171
 total energy-change (2. order) :-0.1927076E-05  (-0.1005026E-05)
 number of electron      59.0000001 magnetization      -0.9999999
 augmentation part       21.1612507 magnetization      -0.8442675

 Free energy of the ion-electron system (eV)
  alpha Z        PSCENC =       254.13221394
  Ewald energy   TEWEN  =     -4657.77546623
  -Hartree energ DENC   =     -2544.88645441
  -exchange      EXHF   =         0.00000000
  -V(xc)+E(xc)   XCENC  =       296.03746323
  PAW double counting   =      7235.10095947    -7443.42652427
  entropy T*S    EENTRO =         0.00000000
  eigenvalues    EBANDS =      -846.74475677
  atomic energy  EATOM  =      7661.30377365
  Solvation  Ediel_sol  =         0.00000000
  free energy    TOTEN  =       -46.25879139 eV

  energy without entropy =      -46.25879139  energy(sigma->0) =      -46.25879139

 average (electrostatic) potential at core
  the test charge radii are     0.7079  0.9577  0.8614  0.7215
  (the norm of the test charge is              1.0000)
       1 -59.1962       2 -57.8239       3 -71.6809       4 -82.0137       5 -69.5246
       6 -70.5104       7 -69.5246       8 -70.5104

 E-fermi :   4.5813     XC(G=0): -11.4659     alpha+bet :-13.6022

[...]

 spin component 2

[...]

 k-point   144 :      -0.0625   -0.0833    0.4167
  band No.  band energies     occupation
      1     -57.3963      1.00000
      2     -57.2836      1.00000
      3     -57.2795      1.00000
      4     -46.6005      1.00000
      5     -46.5625      1.00000
      6     -46.3971      1.00000
      7     -40.1181      1.00000
      8     -38.7465      1.00000
      9     -14.1460      1.00000
     10     -13.1869      1.00000
     11     -12.6181      1.00000
     12     -12.3526      1.00000
     13      -2.4128      1.00000
     14      -1.9597      1.00000
     15      -1.0115      1.00000
     16      -0.6401      1.00000
     17      -0.6082      1.00000
     18       0.2172      1.00000
     19       0.6882      1.00000
     20       0.8708      1.00000
     21       1.5858      1.00000
     22       1.7824      1.00000
     23       1.9310      1.00000
     24       2.1470      1.00000
     25       2.1755      1.00000
     26       2.6517      1.00000
     27       2.9277      1.00000
     28       3.0125      1.00000
     29       3.3575      1.00000
     30       3.6100      1.00000
     31       5.8330      0.00000
     32       5.9976      0.00000
     33       8.6288      0.00000
     34       8.7159      0.00000
     35      11.0445      0.00000

[...]

 soft charge-density along one line, spin component           2
         0         1         2         3         4         5         6         7         8         9
 total charge-density along one line

------------------------ aborting loop because EDIFF is reached ----------------------------------------

[...]

  FORCE on cell =-STRESS in cart. coord.  units (eV):
  Direction    XX          YY          ZZ          XY          YZ          ZX
  Alpha Z   254.13221   254.13221   254.13221
  Ewald    -984.69098  -977.79587 -2695.29534     0.01899   -14.31889    -0.02003
  Hartree  1309.84528  1310.25002   -75.19601     0.01084   -16.27682    -0.01232
  E(xc)    -344.29792  -344.23732  -344.63609     0.00002     0.01203    -0.00003
  Local   -1292.43586 -1300.50737  1795.53177    -0.02962    29.06588     0.03232
  n-local  -247.49211  -246.85631  -249.16707    -0.00009     0.26950     0.00011
  augment   342.48611   342.24780   344.12634     0.00009     0.54376    -0.00013
  Kinetic   962.47479   962.72604   970.56458    -0.00022     0.72571     0.00008
  Fock        0.00000     0.00000     0.00000     0.00000     0.00000     0.00000
  Total       0.02154    -0.04081     0.06041     0.00003     0.02117     0.00002
  in kB       0.48569    -0.92012     1.36211     0.00073     0.47735     0.00036

 VOLUME and BASIS-vectors are now :
  energy-cutoff  :      520.00
  volume of cell :       71.05
      direct lattice vectors                 reciprocal lattice vectors
     2.912305437 -0.000011711 -0.000003753     0.343370578  0.000001350  0.000000580
    -0.000020031  5.103628718 -0.023477505     0.000000698  0.195621981 -0.068918776
    -0.000014670  1.681468385  4.772751297     0.000000273  0.000962279  0.209183738

  length of vectors
     2.912305437  5.103682718  5.060285651     0.343370578  0.207407225  0.209185952

 FORCES acting on ions
    electron-ion (+dipol)            ewald-force                    non-local-force                 convergence-correction
   -.162E-03 -.123E-03 0.197E-04   0.151E-03 0.116E-03 -.233E-04   0.107E-04 0.622E-05 0.145E-05   -.565E-08 0.543E-06 0.107E-05
   -.121E-03 -.368E-04 -.147E-05   0.113E-03 0.331E-04 0.215E-05   0.937E-05 0.504E-05 0.335E-06   -.407E-08 -.436E-06 0.714E-07
   0.368E-04 0.268E-03 -.192E-03   -.400E-04 -.277E-03 0.197E-03   0.304E-06 0.451E-06 -.146E-05   -.395E-06 -.324E-06 0.313E-06
   -.136E-04 -.230E-03 0.112E-03   0.890E-05 0.242E-03 -.114E-03   0.621E-05 -.492E-05 0.698E-05   0.701E-07 -.471E-06 -.339E-05
   0.802E-02 -.335E+01 -.353E+03   -.844E-02 0.700E+01 0.365E+03   0.429E-03 -.369E+01 -.120E+02   0.306E-05 -.756E-03 -.727E-03
   -.913E-03 -.465E+01 0.346E+03   0.988E-03 0.806E+01 -.359E+03   -.458E-04 -.344E+01 0.134E+02   0.180E-05 -.892E-03 0.141E-02
   -.786E-02 0.335E+01 0.353E+03   0.827E-02 -.700E+01 -.365E+03   -.412E-03 0.369E+01 0.120E+02   -.300E-05 0.756E-03 0.726E-03
   0.964E-03 0.465E+01 -.346E+03   -.105E-02 -.806E+01 0.359E+03   0.505E-04 0.344E+01 -.134E+02   -.182E-05 0.893E-03 -.141E-02
   -.521E-04 -.238E-04 -.152E-04   -.116E-13 0.355E-14 0.000E+00   0.487E-04 0.225E-04 0.167E-04   -.304E-06 -.688E-06 -.366E-05

 POSITION                                       TOTAL-FORCE (eV/Angst)
     -0.00000     -0.00000     -0.00000         0.000001      0.000000     -0.000001
      1.45614      2.55181     -0.01174         0.000003      0.000001      0.000001
     -0.00002      3.39255      2.37464        -0.000003     -0.000009      0.000005
      1.45615      0.84073      2.38637         0.000002      0.000006      0.000002
      0.00001      4.99010      3.45236         0.000007     -0.049392     -0.026669
      1.45613      4.15027      1.28973         0.000032     -0.032741      0.004088
     -0.00004      1.79499      1.29691        -0.000009      0.049392      0.026666
      1.45614      2.63482      3.45954        -0.000033      0.032742     -0.004093
    total drift:                               -0.000004     -0.000002     -0.000002

  FREE ENERGIE OF THE ION-ELECTRON SYSTEM (eV)
  free  energy   TOTEN  =       -46.25879139 eV

  energy  without entropy=      -46.25879139  energy(sigma->0) =      -46.25879139

 d Force = 0.1367614E-04[ 0.665E-05, 0.207E-04]  d Energy = 0.7812629E-04-0.645E-04
 d Force =-0.3216963E+00[-0.322E+00,-0.321E+00]  d Ewald  =-0.2900911E+00-0.316E-01

 reached required accuracy - stopping structural energy minimisation

 total charge

[...]

 magnetization (x)

# of ion     s       p       d       tot
  1        0.000   0.001   0.000   0.002
  2        0.000   0.002   0.000   0.002
  3       -0.022  -0.034  -3.111  -3.167
  4       -0.000   0.002   1.726   1.727
  5        0.006   0.092   0.000   0.098
  6        0.004   0.112   0.000   0.116
  7        0.006   0.092   0.000   0.098
  8        0.004   0.112   0.000   0.116
tot       -0.002   0.379  -1.385  -1.007

 BZINTS: Fermi energy:  4.581273; 59.000000 electrons
         Band energy:-846.744757;  BLOECHL correction:  0.000000