 vasp.5.4.1 24Jun15 (build Jan 18 2016 12:20:36) complex

 executed on           IFC91_ompi date 2016.06.08  21:10:37

 INCAR:
 POTCAR:    PAW_PBE Li 17Jan2003
 POTCAR:   PAW_PBE Co 06Sep2000
 POTCAR:   PAW_PBE Ni 06Sep2000
 POTCAR:   PAW_PBE O 08Apr2002

 POTCAR:    PAW_PBE Li 17Jan2003
   VRHFIN =Li: s1p0

   TITEL  = PAW_PBE Li 17Jan2003
   POMASS =    7.010; ZVAL   =    1.000    mass and valenz
   ENMAX  =  140.000; ENMIN  =  100.000 eV
   QCUT   =   -2.932; QGAM   =    5.865    optimization parameters

   Description
     l     E      TYP  RCUT    TYP  RCUT
     0   .000     23  2.050
     0  2.000     23  2.050
     1   .000     23  2.050
     2   .000     23  2.050

 POTCAR:   PAW_PBE Co 06Sep2000
   VRHFIN =Co: d8 s1

   TITEL  = PAW_PBE Co 06Sep2000
   POMASS =   58.933; ZVAL   =    9.000    mass and valenz
   ENMAX  =  267.969; ENMIN  =  200.977 eV
   QCUT   =   -4.438; QGAM   =    8.876    optimization parameters

[...]

 POTCAR:   PAW_PBE Ni 06Sep2000
   VRHFIN =Ni:

   TITEL  = PAW_PBE Ni 06Sep2000
   POMASS =   58.690; ZVAL   =   10.000    mass and valenz
   ENMAX  =  269.533; ENMIN  =  202.150 eV
   QCUT   =   -4.451; QGAM   =    8.902    optimization parameters

[...]

 POTCAR:   PAW_PBE O 08Apr2002
   VRHFIN =O: s2p4

   TITEL  = PAW_PBE O 08Apr2002
   POMASS =   16.000; ZVAL   =    6.000    mass and valenz
   ENMAX  =  400.000; ENMIN  =  300.000 eV
   QCUT   =   -5.520; QGAM   =   11.041    optimization parameters

   Description
     l     E      TYP  RCUT    TYP  RCUT
     0   .000     23  1.200
     0  -.700     23  1.200
     1   .000     23  1.520
     1   .600     23  1.520
     2   .000      7  1.500

 Optimization of the real space projectors (new method)

 maximal supplied QI-value         = 18.33
 optimisation between [QCUT,QGAM] = [ 11.55, 23.28] = [ 37.34,151.76] Ry
 Optimized for a Real-space Cutoff    1.14 Angstroem

   l    n(q)    QCUT    max X(q) W(low)/X(q) W(high)/X(q)  e(spline)
   0      8    11.548    30.666    0.12E-04    0.21E-04    0.93E-08
   0      8    11.548    39.284    0.15E-03    0.55E-04    0.54E-07
   1      7    11.548     4.214    0.21E-03    0.27E-03    0.42E-07
 Optimization of the real space projectors (new method)

[...]

   l    n(q)    QCUT    max X(q) W(low)/X(q) W(high)/X(q)  e(spline)
   2      9    11.539     4.811    0.20E-04    0.14E-04    0.45E-07
   2      9    11.539    15.146    0.24E-03    0.12E-03    0.20E-06
   0     10    11.539    14.357    0.18E-04    0.12E-05    0.14E-07
   0     10    11.539    43.282    0.39E-04    0.17E-04    0.23E-06
   1     10    11.539     5.514    0.99E-05    0.13E-04    0.19E-07
   1     10    11.539     7.697    0.38E-04    0.79E-04    0.91E-07
 Optimization of the real space projectors (new method)

 maximal supplied QI-value         = 24.76
 optimisation between [QCUT,QGAM] = [ 11.64, 23.27] = [ 37.91,151.63] Ry
 Optimized for a Real-space Cutoff    1.08 Angstroem

   l    n(q)    QCUT    max X(q) W(low)/X(q) W(high)/X(q)  e(spline)
   0      7    11.635     4.192    0.54E-04    0.80E-04    0.26E-07
   0      7    11.635     8.473    0.70E-04    0.40E-03    0.21E-06
   1      7    11.635     2.474    0.39E-04    0.14E-03    0.23E-07
   1      7    11.635     3.912    0.25E-03    0.37E-03    0.22E-06
  PAW_PBE Li 17Jan2003                  :
 PAW_PBE Co 06Sep2000                   :
 PAW_PBE Ni 06Sep2000                   :
 PAW_PBE O 08Apr2002                    :

 POSCAR: Li2 Co1 Ni1 O4
  positions in direct lattice
 exchange correlation table for  LEXCH =        8
   RHO(1)=    0.500       N(1)  =     2000
   RHO(2)=  100.500       N(2)  =     4000

 ion  position               nearest neighbor table
   1  0.000  0.000  0.000-   5 2.05   7 2.05   6 2.06   8 2.06   6 2.06   8 2.06   2 2.89   2 2.89
                             2 2.89   2 2.89   3 2.91   3 2.91   4 2.93   4 2.93   4 2.93   4 2.93
   2  0.500  0.500  0.000-   6 2.05   8 2.05   7 2.06   5 2.06   5 2.06   7 2.06   1 2.89   1 2.89
                             1 2.89   1 2.89   4 2.91   4 2.91   3 2.93   3 2.93   3 2.93   3 2.93
   3  0.000  0.500  0.500-   5 2.05   7 2.05   6 2.06   8 2.06   6 2.06   8 2.06   4 2.89   4 2.89
                             4 2.89   4 2.89   1 2.91   1 2.91   2 2.93   2 2.93   2 2.93   2 2.93
   4  0.500  0.000  0.500-   6 2.05   8 2.05   7 2.06   5 2.06   5 2.06   7 2.06   3 2.89   3 2.89
                             3 2.89   3 2.89   2 2.91   2 2.91   1 2.93   1 2.93   1 2.93   1 2.93
   5  0.000  0.750  0.750-   1 2.05   3 2.05   2 2.06   4 2.06   2 2.06   4 2.06
   6  0.500  0.750  0.250-   2 2.05   4 2.05   3 2.06   1 2.06   1 2.06   3 2.06
   7  0.000  0.250  0.250-   1 2.05   3 2.05   2 2.06   4 2.06   2 2.06   4 2.06
   8  0.500  0.250  0.750-   2 2.05   4 2.05   3 2.06   1 2.06   1 2.06   3 2.06

  LATTYP: Found a simple monoclinic cell.
 ALAT       =     8.2146770600
 B/A-ratio  =     0.3552178593
 C/A-ratio  =     1.5361420883
 COS(beta)  =    -0.9729755608

  Lattice vectors:

 A1 = (   0.0000000000,  -6.6756000000,  -4.7872000000)
 A2 = (  -2.9180000000,   0.0000000000,   0.0000000000)
 A3 = (   0.0000000000,  11.6756000000,   4.7872000000)

Analysis of symmetry for initial positions (statically):
 Subroutine PRICEL returns:
 Original cell was already a primitive cell.

 Routine SETGRP: Setting up the symmetry group for a
 simple monoclinic supercell.

 Subroutine GETGRP returns: Found  4 space group operations
 (whereof  4 operations were pure point group operations)
 out of a pool of  4 trial point group operations.

The static configuration has the point symmetry C_2h.

Analysis of symmetry for dynamics (positions and initial velocities):
 Subroutine PRICEL returns:
 Original cell was already a primitive cell.

[...]

The dynamic configuration has the point symmetry C_2h.

Analysis of structural, dynamic, and magnetic symmetry:
 Subroutine PRICEL returns:
 Original cell was already a primitive cell.

 Routine SETGRP: Setting up the symmetry group for a
 simple monoclinic supercell.

 Subroutine GETGRP returns: Found  4 space group operations
 (whereof  4 operations were pure point group operations)
 out of a pool of  4 trial point group operations.

The magnetic configuration has the point symmetry C_2h.

 Subroutine INISYM returns: Found  4 space group operations
 (whereof  4 operations are pure point group operations),
 and found     1 'primitive' translations

 KPOINTS: pymatgen generated KPOINTS with grid den

Automatic generation of k-mesh.
Space group operators:
 irot       det(A)        alpha          n_x          n_y          n_z        tau_x        tau_y        tau_z
    1     1.000000     0.000001     1.000000     0.000000     0.000000     0.000000     0.000000     0.000000
    2    -1.000000     0.000001     1.000000     0.000000     0.000000     0.000000     0.000000     0.000000
    3     1.000000   180.000000     1.000000     0.000000     0.000000     0.000000     0.000000     0.000000
    4    -1.000000   180.000000     1.000000     0.000000     0.000000     0.000000     0.000000     0.000000

 Subroutine IBZKPT returns following result:

 Found     72 irreducible k-points:

 Following reciprocal coordinates:
            Coordinates               Weight
  0.062500  0.083333  0.083333      4.000000
  0.187500  0.083333  0.083333      4.000000
  0.312500  0.083333  0.083333      4.000000
  0.437500  0.083333  0.083333      4.000000
  0.062500  0.250000  0.083333      4.000000
  0.187500  0.250000  0.083333      4.000000
  0.312500  0.250000  0.083333      4.000000
  0.437500  0.250000  0.083333      4.000000
  0.062500  0.416667  0.083333      4.000000
  0.187500  0.416667  0.083333      4.000000
  0.312500  0.416667  0.083333      4.000000
  0.437500  0.416667  0.083333      4.000000
  0.062500 -0.416667  0.083333      4.000000
  0.187500 -0.416667  0.083333      4.000000
  0.312500 -0.416667  0.083333      4.000000
  0.437500 -0.416667  0.083333      4.000000
  0.062500 -0.250000  0.083333      4.000000
  0.187500 -0.250000  0.083333      4.000000
  0.312500 -0.250000  0.083333      4.000000
  0.437500 -0.250000  0.083333      4.000000
  0.062500 -0.083333  0.083333      4.000000
  0.187500 -0.083333  0.083333      4.000000
  0.312500 -0.083333  0.083333      4.000000
  0.437500 -0.083333  0.083333      4.000000
  0.062500  0.083333  0.250000      4.000000
  0.187500  0.083333  0.250000      4.000000
  0.312500  0.083333  0.250000      4.000000
  0.437500  0.083333  0.250000      4.000000
  0.062500  0.250000  0.250000      4.000000
  0.187500  0.250000  0.250000      4.000000
  0.312500  0.250000  0.250000      4.000000
  0.437500  0.250000  0.250000      4.000000
  0.062500  0.416667  0.250000      4.000000
  0.187500  0.416667  0.250000      4.000000
  0.312500  0.416667  0.250000      4.000000
  0.437500  0.416667  0.250000      4.000000
  0.062500 -0.416667  0.250000      4.000000
  0.187500 -0.416667  0.250000      4.000000
  0.312500 -0.416667  0.250000      4.000000
  0.437500 -0.416667  0.250000      4.000000
  0.062500 -0.250000  0.250000      4.000000
  0.187500 -0.250000  0.250000      4.000000
  0.312500 -0.250000  0.250000      4.000000
  0.437500 -0.250000  0.250000      4.000000
  0.062500 -0.083333  0.250000      4.000000
  0.187500 -0.083333  0.250000      4.000000
  0.312500 -0.083333  0.250000      4.000000
  0.437500 -0.083333  0.250000      4.000000
  0.062500  0.083333  0.416667      4.000000
  0.187500  0.083333  0.416667      4.000000
  0.312500  0.083333  0.416667      4.000000
  0.437500  0.083333  0.416667      4.000000
  0.062500  0.250000  0.416667      4.000000
  0.187500  0.250000  0.416667      4.000000
  0.312500  0.250000  0.416667      4.000000
  0.437500  0.250000  0.416667      4.000000
  0.062500  0.416667  0.416667      4.000000
  0.187500  0.416667  0.416667      4.000000
  0.312500  0.416667  0.416667      4.000000
  0.437500  0.416667  0.416667      4.000000
  0.062500 -0.416667  0.416667      4.000000
  0.187500 -0.416667  0.416667      4.000000
  0.312500 -0.416667  0.416667      4.000000
  0.437500 -0.416667  0.416667      4.000000
  0.062500 -0.250000  0.416667      4.000000
  0.187500 -0.250000  0.416667      4.000000
  0.312500 -0.250000  0.416667      4.000000
  0.437500 -0.250000  0.416667      4.000000
  0.062500 -0.083333  0.416667      4.000000
  0.187500 -0.083333  0.416667      4.000000
  0.312500 -0.083333  0.416667      4.000000
  0.437500 -0.083333  0.416667      4.000000

 Following cartesian coordinates:
            Coordinates               Weight
  0.021419  0.016667  0.011574      4.000000
  0.064256  0.016667  0.011574      4.000000
  0.107094  0.016667  0.011574      4.000000
  0.149931  0.016667  0.011574      4.000000
  0.021419  0.050000 -0.000093      4.000000
  0.064256  0.050000 -0.000093      4.000000
  0.107094  0.050000 -0.000093      4.000000
  0.149931  0.050000 -0.000093      4.000000
  0.021419  0.083333 -0.011761      4.000000
  0.064256  0.083333 -0.011761      4.000000
  0.107094  0.083333 -0.011761      4.000000
  0.149931  0.083333 -0.011761      4.000000
  0.021419 -0.083333  0.046576      4.000000
  0.064256 -0.083333  0.046576      4.000000
[...]
     27       8.3753      0.00000
     28      10.9742      0.00000
     29      11.1842      0.00000
     30      13.0830      0.00000
     31      15.5288      0.00000
     32      15.8301      0.00000
     33      16.6873      0.00000
     34      17.2887      0.00000
     35      18.2318      0.00000
     36      18.3482      0.00000
     37      18.4513      0.00000
     38      18.7693      0.00000
     39      21.0418      0.00000
     40      21.2193      0.00000
     41      21.2595      0.00000
     42      22.3041      0.00000
     43      22.6595      0.00000
     44      24.4564      0.00000
     45      24.9461      0.00000
     46      25.3747      0.00000
     47      26.3141      0.00000
     48      27.4291      0.00000

[...]

 soft charge-density along one line, spin component           1
         0         1         2         3         4         5         6         7         8         9
 total charge-density along one line

[...]

------------------------ aborting loop because EDIFF is reached ----------------------------------------

 total charge

# of ion     s       p       d       tot
  1        0.094   0.200   0.000   0.294
  2        0.100   0.208   0.000   0.308
  3        0.344   0.460   7.163   7.967
  4        0.371   0.480   8.191   9.042
  5        1.567   3.378   0.000   4.946
  6        1.565   3.383   0.000   4.948
  7        1.567   3.378   0.000   4.946
  8        1.565   3.383   0.000   4.948
tot        7.173  14.872  15.354  37.399

 magnetization (x)

[...]

  FORCE on cell =-STRESS in cart. coord.  units (eV):
  Direction    XX          YY          ZZ          XY          YZ          ZX
  Alpha Z   192.12196   192.12196   192.12196
  Ewald    -690.77700  -689.31767 -1356.07986     0.00000     7.23911     0.00000
  Hartree   532.40695   533.11031     0.20404    -0.00000     3.41563    -0.00000
  E(xc)    -224.35327  -224.36255  -224.38032    -0.00000     0.01444     0.00000
  Local    -469.18117  -472.89298   726.91514     0.00000   -10.87513    -0.00000
  n-local  -153.10962  -153.44666  -153.04352    -0.22384     0.05695    -0.16487
  augment   127.78112   128.28031   127.73761     0.00000     0.07122     0.00000
  Kinetic   680.11680   682.76098   679.86333    -1.12533     0.18239     1.42360
  Fock        0.00000     0.00000     0.00000     0.00000     0.00000     0.00000
  Total      -4.99423    -3.74631    -6.66162     0.00000     0.10460     0.00000
  in kB    -114.56246   -85.93645  -152.81063     0.00000     2.39948     0.00000

 VOLUME and BASIS-vectors are now :
  energy-cutoff  :      520.00
  volume of cell :       69.85
      direct lattice vectors                 reciprocal lattice vectors
     2.918000000  0.000000000  0.000000000     0.342700480  0.000000000  0.000000000
     0.000000000  5.000000000  0.000000000     0.000000000  0.200000000 -0.070003342
     0.000000000  1.675600000  4.787200000     0.000000000  0.000000000  0.208890374

[...]

 FORCES acting on ions
    electron-ion (+dipol)            ewald-force                    non-local-force                 convergence-correction
   -.113E-17 0.112E-14 0.322E-14   0.276E-15 0.178E-14 0.000E+00   0.000E+00 0.103E-24 0.000E+00   0.130E-16 -.232E-15 0.264E-15
   0.362E-15 0.213E-12 0.305E-12   -.181E-15 0.000E+00 0.178E-14   0.000E+00 -.827E-24 0.000E+00   0.334E-16 0.246E-15 0.968E-15
   -.254E-14 -.108E-12 -.123E-12   -.319E-15 0.000E+00 -.284E-13   0.000E+00 0.000E+00 0.000E+00   -.169E-13 -.143E-13 -.501E-13
   0.322E-12 0.100E-11 -.536E-11   -.742E-14 0.142E-13 -.426E-13   0.000E+00 0.000E+00 0.000E+00   -.147E-13 0.422E-13 -.218E-13
   -.902E-14 0.125E+02 -.229E+03   -.529E-14 -.112E+02 0.241E+03   0.000E+00 -.197E+01 -.132E+02   -.770E-14 -.239E-01 -.744E-02
   0.105E-12 0.153E+02 0.220E+03   -.752E-14 -.141E+02 -.232E+03   0.347E-17 -.192E+01 0.144E+02   0.747E-14 -.215E-01 0.231E-01
   -.103E-13 -.125E+02 0.229E+03   0.155E-13 0.112E+02 -.241E+03   0.000E+00 0.197E+01 0.132E+02   -.850E-14 0.239E-01 0.744E-02
   0.110E-12 -.153E+02 -.220E+03   0.749E-14 0.141E+02 0.232E+03   -.347E-17 0.192E+01 -.144E+02   0.756E-14 0.215E-01 -.231E-01
   0.517E-12 0.117E-11 -.654E-11   0.257E-14 0.355E-14 -.284E-13   0.000E+00 0.666E-15 0.178E-14   -.327E-13 0.999E-14 -.109E-12

 POSITION                                       TOTAL-FORCE (eV/Angst)
      0.00000      0.00000      0.00000         0.000000      0.000000      0.000000
      1.45900      2.50000      0.00000         0.000000      0.000000      0.000000
      0.00000      3.33780      2.39360         0.000000      0.000000      0.000000
      1.45900      0.83780      2.39360         0.000000      0.000000      0.000000
      0.00000      5.00670      3.59040         0.000000     -0.695250     -1.885534
      1.45900      4.16890      1.19680         0.000000     -0.745298      2.279399
      0.00000      1.66890      1.19680         0.000000      0.695250      1.885534
      1.45900      2.50670      3.59040         0.000000      0.745298     -2.279399
    total drift:                                0.000000      0.000000     -0.000000

  FREE ENERGIE OF THE ION-ELECTRON SYSTEM (eV)
  free  energy   TOTEN  =       -41.84155278 eV

  energy  without entropy=      -41.84155278  energy(sigma->0) =      -41.84155278

[...]

 BZINTS: Fermi energy:  3.766114; 45.000000 electrons
         Band energy: -99.356661;  BLOECHL correction: -0.013379

[...]

 d Force = 0.4831365E+00[ 0.579E-01, 0.908E+00]  d Energy = 0.6772867E+00-0.194E+00
 d Force =-0.1008108E+03[-0.112E+03,-0.892E+02]  d Ewald  =-0.8743045E+01-0.921E+02

 Steepest descent step on ions:
 trial-energy change:   -0.677287  1 .order   -0.623469   -1.447352    0.200414
  (g-gl).g = 0.145E+01      g.g   = 0.145E+01  gl.gl    = 0.000E+00
 g(Force)  = 0.945E+00   g(Stress)= 0.503E+00 ortho     = 0.000E+00
 gamma     =   0.00000
 trial     =   1.00000
 opt step  =   0.89655  (harmonic =   0.87837) maximal distance =0.09858827
 next E    =   -42.529146   (d E  =  -0.68759)

[...]

 d Force =-0.1237024E-01[-0.185E-01,-0.621E-02]  d Energy = 0.1189372E-01-0.243E-01
 d Force = 0.1203307E+02[ 0.119E+02, 0.122E+02]  d Ewald  = 0.1966633E+01 0.101E+02

[...]

 Conjugate gradient step on ions:
 trial-energy change:   -0.082872  1 .order   -0.082601   -0.121987   -0.043216
  (g-gl).g = 0.133E+00      g.g   = 0.125E+00  gl.gl    = 0.145E+01
 g(Force)  = 0.440E-01   g(Stress)= 0.813E-01 ortho     =-0.780E-02
 gamma     =   0.09195
 trial     =   0.97931
 opt step  =   1.51658  (harmonic =   1.51658) maximal distance =0.04638339
 next E    =   -42.625189   (d E  =  -0.09446)

[...]

 d Force = 0.6245309E-02[ 0.642E-03, 0.118E-01]  d Energy = 0.1432299E-01-0.808E-02
 d Force =-0.1685740E+02[-0.170E+02,-0.167E+02]  d Ewald  =-0.2990398E+02 0.130E+02

[...]

 d Force = 0.7431840E-02[ 0.585E-02, 0.901E-02]  d Energy = 0.1019551E-01-0.276E-02
 d Force = 0.7566055E+00[ 0.736E+00, 0.778E+00]  d Ewald  =-0.6580445E+01 0.734E+01

 Conjugate gradient step on ions:
 trial-energy change:   -0.010196  1 .order   -0.010711   -0.013214   -0.008207
  (g-gl).g = 0.452E-02      g.g   = 0.120E-01  gl.gl    = 0.125E+00
 g(Force)  = 0.821E-02   g(Stress)= 0.380E-02 ortho     = 0.416E-02
 gamma     =   0.03605
 trial     =   1.08676
 opt step  =   2.86822  (harmonic =   2.86822) maximal distance =0.02999381
 next E    =   -42.645366   (d E  =  -0.01744)

[...]

 d Force = 0.4851534E-02[ 0.848E-04, 0.962E-02]  d Energy = 0.2467412E-02 0.238E-02
 d Force = 0.1153978E+01[ 0.110E+01, 0.121E+01]  d Ewald  =-0.1080213E+02 0.120E+02

[...]

 d Force = 0.2087167E-02[-0.321E-02, 0.738E-02]  d Energy = 0.3759914E-02-0.167E-02
 d Force =-0.1140687E+02[-0.115E+02,-0.113E+02]  d Ewald  =-0.3537886E+01-0.787E+01

 Steepest descent step on ions:
 trial-energy change:   -0.003760  1 .order   -0.003777   -0.012734    0.005180
  (g-gl).g = 0.114E-01      g.g   = 0.882E-02  gl.gl    = 0.120E-01
 g(Force)  = 0.514E-02   g(Stress)= 0.368E-02 ortho     =-0.214E-02
 gamma     =   0.00000
 trial     =   1.44306
 opt step  =   1.02578  (harmonic =   1.02578) maximal distance =0.00709352
 next E    =   -42.645117   (d E  =  -0.00453)

 FEWALD executed in parallel

[...]

 eigenvalue-minimisations  :  7914
 total energy-change (2. order) : 0.1606531E-03  (-0.9370542E-05)
 number of electron      45.0000000 magnetization       1.0000002
 augmentation part       13.8019671 magnetization       0.9669250

 Broyden mixing:
  rms(total) = 0.33485E-02    rms(broyden)= 0.33477E-02
  rms(prec ) = 0.61989E-02
  weight for this iteration     100.00

 eigenvalues of (default mixing * dielectric matrix)
  average eigenvalue GAMMA=   0.9599
  1.9690  1.0964  0.5204  0.2536

[...]

----------------------------------------- Iteration    9(   6)  ---------------------------------------

[...]

 eigenvalue-minimisations  :  7283
 total energy-change (2. order) :-0.5367265E-04  (-0.2635950E-05)
 number of electron      45.0000000 magnetization       1.0000002
 augmentation part       13.8019671 magnetization       0.9669250

 Free energy of the ion-electron system (eV)
  alpha Z        PSCENC =       199.51517357
  Ewald energy   TEWEN  =     -2625.29607691
  -Hartree energ DENC   =     -1197.87407224
  -exchange      EXHF   =         0.00000000
  -V(xc)+E(xc)   XCENC  =       153.83754859
  PAW double counting   =      2772.14406267    -2859.03026020
  entropy T*S    EENTRO =         0.00000000
  eigenvalues    EBANDS =      -117.42694463
  atomic energy  EATOM  =      3631.48514882
  Solvation  Ediel_sol  =         0.00000000
  free energy    TOTEN  =       -42.64542034 eV

  energy without entropy =      -42.64542034  energy(sigma->0) =      -42.64542034

 average (electrostatic) potential at core
  the test charge radii are     0.9748  1.0452  0.9791  0.7215
  (the norm of the test charge is              1.0000)
       1 -25.1724       2 -24.6855       3 -42.9537       4 -43.8969       5 -71.6206
       6 -71.1944       7 -71.6206       8 -71.1944

 E-fermi :   3.1452     XC(G=0): -11.4352     alpha+bet :-12.8271

[...]

 spin component 2

[...]

 k-point    72 :       0.4375   -0.0833    0.4167
  band No.  band energies     occupation
      1     -14.5496      1.00000
      2     -14.2249      1.00000
      3     -13.9297      1.00000
      4     -13.8113      1.00000
      5      -2.7433      1.00000
      6      -2.5474      1.00000
      7      -2.2753      1.00000
      8      -2.0407      1.00000
      9      -1.3038      1.00000
     10      -0.8819      1.00000
     11      -0.6015      1.00000
     12      -0.5061      1.00000
     13      -0.3552      1.00000
     14       0.3064      1.00000
     15       0.5303      1.00000
     16       0.7063      1.00000
     17       0.9940      1.00000
     18       1.0491      1.00000
     19       1.5655      1.00000
     20       1.8358      1.00000
     21       2.1169      1.00000
     22       2.6229      1.00000
     23       5.3143      0.00000
     24       5.5095      0.00000
     25       6.1768      0.00000
     26       6.4902      0.00000
     27      12.8563      0.00000
     28      13.3082      0.00000
     29      13.9825      0.00000
     30      14.5484      0.00000
     31      15.1987      0.00000
     32      15.9365      0.00000
     33      16.4455      0.00000
     34      16.6915      0.00000
     35      17.4419      0.00000
     36      18.1516      0.00000
     37      18.5600      0.00000
     38      19.2015      0.00000
     39      20.0230      0.00000
     40      20.6231      0.00000
     41      20.9758      0.00000
     42      21.8710      0.00000
     43      23.4570      0.00000
     44      24.2610      0.00000
     45      25.0047      0.00000
     46      25.8276      0.00000
     47      30.3168      0.00000
     48      30.6581      0.00000

[...]

 soft charge-density along one line, spin component           2
         0         1         2         3         4         5         6         7         8         9
 total charge-density along one line

------------------------ aborting loop because EDIFF is reached ----------------------------------------

[...]

  FORCE on cell =-STRESS in cart. coord.  units (eV):
  Direction    XX          YY          ZZ          XY          YZ          ZX
  Alpha Z   199.51517   199.51517   199.51517
  Ewald    -469.26678  -501.91051 -1654.12316    -0.00000   -16.84645    -0.00000
  Hartree   713.74985   699.12688  -214.97981    -0.00000    -5.98871    -0.00000
  E(xc)    -225.79221  -225.77686  -226.15905     0.00000    -0.00252    -0.00000
  Local    -875.70511  -833.01621  1226.87676     0.00000    19.53981     0.00000
  n-local  -150.86685  -151.70841  -153.21347    -0.29289    -0.79719     0.04193
  augment   126.99188   127.79141   129.31273     0.00000     0.73636     0.00000
  Kinetic   681.54953   686.18919   692.81331    -0.76347     3.47768     0.14603
  Fock        0.00000     0.00000     0.00000     0.00000     0.00000     0.00000
  Total       0.17547     0.21065     0.04249     0.00000     0.11898     0.00000
  in kB       4.18002     5.01807     1.01219     0.00000     2.83441     0.00000

 VOLUME and BASIS-vectors are now :
  energy-cutoff  :      520.00
  volume of cell :       67.26
      direct lattice vectors                 reciprocal lattice vectors
     2.847382526  0.000000000  0.000000000     0.351199739  0.000000000  0.000000000
     0.000000000  4.999349434  0.014954081     0.000000000  0.200239977 -0.071526800
     0.000000000  1.689510625  4.729801530     0.000000000 -0.000633093  0.211651506

  length of vectors
     2.847382526  4.999371799  5.022496259     0.351199739  0.212631446  0.211652453

 FORCES acting on ions
    electron-ion (+dipol)            ewald-force                    non-local-force                 convergence-correction
   -.249E-15 0.168E-14 0.287E-14   0.192E-15 -.178E-14 0.000E+00   0.000E+00 0.000E+00 0.000E+00   0.150E-16 -.434E-15 0.243E-14
   -.692E-15 0.154E-12 0.366E-12   0.114E-14 0.355E-14 0.355E-14   0.000E+00 0.000E+00 0.000E+00   0.183E-16 0.456E-15 0.230E-14
   -.682E-14 -.106E-12 -.119E-12   -.250E-14 0.284E-13 0.568E-13   0.000E+00 0.155E-24 0.000E+00   -.202E-13 0.237E-13 -.960E-13
   0.278E-12 0.630E-12 -.609E-11   -.527E-14 0.568E-13 0.426E-13   0.000E+00 0.000E+00 0.000E+00   0.257E-14 0.257E-13 -.910E-13
   -.103E-13 -.480E+01 -.288E+03   -.544E-14 0.554E+01 0.301E+03   0.139E-16 -.701E+00 -.127E+02   0.811E-14 -.232E-01 0.172E-02
   0.921E-13 -.144E+02 0.288E+03   -.303E-15 0.169E+02 -.300E+03   0.000E+00 -.249E+01 0.119E+02   0.105E-13 -.111E-01 0.976E-02
   -.274E-14 0.480E+01 0.288E+03   0.745E-15 -.554E+01 -.301E+03   -.139E-16 0.701E+00 0.127E+02   0.358E-14 0.232E-01 -.172E-02
   0.818E-13 0.144E+02 -.288E+03   0.773E-14 -.169E+02 0.300E+03   0.000E+00 0.249E+01 -.119E+02   0.675E-14 0.111E-01 -.976E-02
   0.431E-12 0.208E-11 -.858E-11   -.371E-14 0.000E+00 -.568E-13   0.000E+00 0.000E+00 0.000E+00   0.113E-13 0.549E-13 -.255E-12

 POSITION                                       TOTAL-FORCE (eV/Angst)
      0.00000     -0.00000     -0.00000         0.000000      0.000000     -0.000000
      1.42369      2.49967      0.00748         0.000000      0.000000     -0.000000
      0.00000      3.34443      2.37238         0.000000      0.000000     -0.000000
      1.42369      0.84476      2.36490         0.000000      0.000000     -0.000000
      0.00000      4.95875      3.39706         0.000000      0.018096     -0.028042
      1.42369      4.09988      1.30005         0.000000     -0.008932     -0.073905
     -0.00000      1.73011      1.34769        -0.000000     -0.018096      0.028042
      1.42369      2.58898      3.44471         0.000000      0.008932      0.073905
    total drift:                                0.000000      0.000000     -0.000000

  FREE ENERGIE OF THE ION-ELECTRON SYSTEM (eV)
  free  energy   TOTEN  =       -42.64542034 eV

  energy  without entropy=      -42.64542034  energy(sigma->0) =      -42.64542034

 d Force = 0.5423407E-03[ 0.150E-03, 0.935E-03]  d Energy = 0.1069148E-02-0.527E-03
 d Force = 0.3348041E+01[ 0.334E+01, 0.336E+01]  d Ewald  = 0.1056417E+01 0.229E+01

 reached required accuracy - stopping structural energy minimisation

 total charge

[...]

 magnetization (x)

# of ion     s       p       d       tot
  1        0.000   0.000   0.000   0.001
  2        0.003   0.003   0.000   0.007
  3       -0.001   0.001  -0.193  -0.193
  4        0.008   0.006   1.393   1.407
  5        0.003  -0.119   0.000  -0.116
  6        0.003   0.019   0.000   0.022
  7        0.003  -0.119   0.000  -0.116
  8        0.003   0.019   0.000   0.022
tot        0.024  -0.190   1.201   1.034

 BZINTS: Fermi energy:  3.145207; 45.000000 electrons
         Band energy:-117.426945;  BLOECHL correction: -0.009870