 vasp.5.4.1 24Jun15 (build Jan 18 2016 12:20:36) complex

 executed on           IFC91_ompi date 2018.02.24  17:42:22

 INCAR:
 POTCAR:    PAW_PBE Li_sv 10Sep2004
 POTCAR:    PAW_PBE Ni_pv 06Sep2000
 POTCAR:    PAW_PBE O 08Apr2002

 POTCAR:    PAW_PBE Li_sv 10Sep2004
   VRHFIN =Li: 1s2s2p

   TITEL  = PAW_PBE Li_sv 10Sep2004
   POMASS =    7.010; ZVAL   =    3.000    mass and valenz
   ENMAX  =  499.034; ENMIN  =  374.276 eV

 POTCAR:    PAW_PBE Ni_pv 06Sep2000
   VRHFIN =Ni:

   TITEL  = PAW_PBE Ni_pv 06Sep2000
   POMASS =   58.690; ZVAL   =   16.000    mass and valenz
   ENMAX  =  367.986; ENMIN  =  275.989 eV

 POTCAR:    PAW_PBE O 08Apr2002
   VRHFIN =O: s2p4

   TITEL  = PAW_PBE O 08Apr2002
   POMASS =   16.000; ZVAL   =    6.000    mass and valenz
   ENMAX  =  400.000; ENMIN  =  300.000 eV

 Optimization of the real space projectors (new method)

 maximal supplied QI-value         = 22.11
 optimisation between [QCUT,QGAM] = [ 11.50, 23.22] = [ 37.02,150.92] Ry
 Optimized for a Real-space Cutoff    1.08 Angstroem

   l    n(q)    QCUT    max X(q) W(low)/X(q) W(high)/X(q)  e(spline)
   0      7    11.497    10.506    0.36E-04    0.62E-04    0.14E-07
   0      7    11.497     8.367    0.65E-04    0.14E-03    0.28E-07
   1      7    11.497     8.983    0.21E-03    0.43E-03    0.90E-07
 Optimization of the real space projectors (new method)

[...]

   l    n(q)    QCUT    max X(q) W(low)/X(q) W(high)/X(q)  e(spline)
   1      9    11.527     2.836    0.16E-04    0.30E-04    0.95E-07
   1      9    11.527     4.023    0.73E-04    0.81E-04    0.21E-06
   2      9    11.527    73.368    0.15E-03    0.29E-03    0.28E-06
   2      9    11.527    69.010    0.15E-03    0.29E-03    0.29E-06
   0      9    11.527    54.797    0.43E-04    0.28E-04    0.85E-07
   0      9    11.527    24.266    0.33E-04    0.24E-04    0.75E-07
 Optimization of the real space projectors (new method)

 maximal supplied QI-value         = 24.76
 optimisation between [QCUT,QGAM] = [ 11.64, 23.27] = [ 37.91,151.63] Ry
 Optimized for a Real-space Cutoff    1.14 Angstroem

   l    n(q)    QCUT    max X(q) W(low)/X(q) W(high)/X(q)  e(spline)
   0      8    11.635    20.381    0.10E-03    0.33E-03    0.24E-06
   0      8    11.635    15.268    0.11E-03    0.35E-03    0.26E-06
   1      7    11.635     5.964    0.24E-03    0.31E-03    0.30E-06
   1      7    11.635     5.382    0.22E-03    0.25E-03    0.26E-06
  PAW_PBE Li_sv 10Sep2004               :
  PAW_PBE Ni_pv 06Sep2000               :
  PAW_PBE O 08Apr2002                   :

 POSCAR: Li2 Ni2 O4
  positions in direct lattice
 exchange correlation table for  LEXCH =        8
   RHO(1)=    0.500       N(1)  =     2000
   RHO(2)=  100.500       N(2)  =     4000

 ion  position               nearest neighbor table
   1  0.000  0.000  0.000-   6 2.07   8 2.07   6 2.07   8 2.07   7 2.08   5 2.08
   2  0.500  0.500  0.000-   5 2.07   7 2.07   5 2.07   7 2.07   6 2.08   8 2.08
   3  0.000  0.500  0.500-   6 2.07   8 2.07   6 2.07   8 2.07   7 2.08   5 2.08
   4  0.500  0.000  0.500-   5 2.07   7 2.07   5 2.07   7 2.07   6 2.08   8 2.08
   5  0.000  0.750  0.750-   2 2.07   4 2.07   2 2.07   4 2.07   3 2.08   1 2.08
   6  0.500  0.750  0.250-   1 2.07   3 2.07   1 2.07   3 2.07   2 2.08   4 2.08
   7  0.000  0.250  0.250-   2 2.07   4 2.07   2 2.07   4 2.07   3 2.08   1 2.08
   8  0.500  0.250  0.750-   1 2.07   3 2.07   1 2.07   3 2.07   2 2.08   4 2.08

IMPORTANT INFORMATION: All symmetrisations will be switched off!
NOSYMM: (Re-)initialisation of all symmetry stuff for point group C_1.

 KPOINTS: pymatgen generated KPOINTS with grid den

Automatic generation of k-mesh.
Space group operators:
 irot       det(A)        alpha          n_x          n_y          n_z        tau_x        tau_y        tau_z
    1     1.000000     0.000001     1.000000     0.000000     0.000000     0.000000     0.000000     0.000000

 Subroutine IBZKPT returns following result:

 Found    144 irreducible k-points:

 Following reciprocal coordinates:
            Coordinates               Weight
  0.062500  0.083333  0.083333      2.000000
  0.187500  0.083333  0.083333      2.000000
  0.312500  0.083333  0.083333      2.000000
  0.437500  0.083333  0.083333      2.000000
 -0.437500  0.083333  0.083333      2.000000
 -0.312500  0.083333  0.083333      2.000000
 -0.187500  0.083333  0.083333      2.000000
 -0.062500  0.083333  0.083333      2.000000
  0.062500  0.250000  0.083333      2.000000
  0.187500  0.250000  0.083333      2.000000
  0.312500  0.250000  0.083333      2.000000
  0.437500  0.250000  0.083333      2.000000
 -0.437500  0.250000  0.083333      2.000000
 -0.312500  0.250000  0.083333      2.000000
 -0.187500  0.250000  0.083333      2.000000
 -0.062500  0.250000  0.083333      2.000000
  0.062500  0.416667  0.083333      2.000000
  0.187500  0.416667  0.083333      2.000000
  0.312500  0.416667  0.083333      2.000000
  0.437500  0.416667  0.083333      2.000000
 -0.437500  0.416667  0.083333      2.000000
 -0.312500  0.416667  0.083333      2.000000
 -0.187500  0.416667  0.083333      2.000000
 -0.062500  0.416667  0.083333      2.000000
  0.062500 -0.416667  0.083333      2.000000
  0.187500 -0.416667  0.083333      2.000000
  0.312500 -0.416667  0.083333      2.000000
  0.437500 -0.416667  0.083333      2.000000
 -0.437500 -0.416667  0.083333      2.000000
 -0.312500 -0.416667  0.083333      2.000000
 -0.187500 -0.416667  0.083333      2.000000
 -0.062500 -0.416667  0.083333      2.000000
  0.062500 -0.250000  0.083333      2.000000
  0.187500 -0.250000  0.083333      2.000000
  0.312500 -0.250000  0.083333      2.000000
  0.437500 -0.250000  0.083333      2.000000
 -0.437500 -0.250000  0.083333      2.000000
 -0.312500 -0.250000  0.083333      2.000000
 -0.187500 -0.250000  0.083333      2.000000
 -0.062500 -0.250000  0.083333      2.000000
  0.062500 -0.083333  0.083333      2.000000
  0.187500 -0.083333  0.083333      2.000000
  0.312500 -0.083333  0.083333      2.000000
  0.437500 -0.083333  0.083333      2.000000
 -0.437500 -0.083333  0.083333      2.000000
 -0.312500 -0.083333  0.083333      2.000000
 -0.187500 -0.083333  0.083333      2.000000
 -0.062500 -0.083333  0.083333      2.000000
  0.062500  0.083333  0.250000      2.000000
  0.187500  0.083333  0.250000      2.000000
  0.312500  0.083333  0.250000      2.000000
  0.437500  0.083333  0.250000      2.000000
 -0.437500  0.083333  0.250000      2.000000
 -0.312500  0.083333  0.250000      2.000000
 -0.187500  0.083333  0.250000      2.000000
 -0.062500  0.083333  0.250000      2.000000
  0.062500  0.250000  0.250000      2.000000
  0.187500  0.250000  0.250000      2.000000
  0.312500  0.250000  0.250000      2.000000
  0.437500  0.250000  0.250000      2.000000
[...]
  0.187500 -0.250000  0.416667      2.000000
  0.312500 -0.250000  0.416667      2.000000
  0.437500 -0.250000  0.416667      2.000000
 -0.437500 -0.250000  0.416667      2.000000
 -0.312500 -0.250000  0.416667      2.000000
 -0.187500 -0.250000  0.416667      2.000000
 -0.062500 -0.250000  0.416667      2.000000
  0.062500 -0.083333  0.416667      2.000000
  0.187500 -0.083333  0.416667      2.000000
  0.312500 -0.083333  0.416667      2.000000
  0.437500 -0.083333  0.416667      2.000000
 -0.437500 -0.083333  0.416667      2.000000
 -0.312500 -0.083333  0.416667      2.000000
 -0.187500 -0.083333  0.416667      2.000000
 -0.062500 -0.083333  0.416667      2.000000

 Following cartesian coordinates:
            Coordinates               Weight
  0.021440  0.016281  0.011623      2.000000
  0.064319  0.016281  0.011623      2.000000
  0.107199  0.016281  0.011623      2.000000
  0.150078  0.016281  0.011623      2.000000
 -0.150078  0.016281  0.011623      2.000000
 -0.107199  0.016281  0.011623      2.000000
 -0.064319  0.016281  0.011623      2.000000
 -0.021440  0.016281  0.011623      2.000000
  0.021440  0.048843 -0.000020      2.000000
  0.064319  0.048843 -0.000020      2.000000
  0.107199  0.048843 -0.000020      2.000000
  0.150078  0.048843 -0.000020      2.000000
 -0.150078  0.048843 -0.000020      2.000000
 -0.107199  0.048843 -0.000020      2.000000
 -0.064319  0.048843 -0.000020      2.000000
 -0.021440  0.048843 -0.000020      2.000000
  0.021440  0.081404 -0.011664      2.000000
  0.064319  0.081404 -0.011664      2.000000
  0.107199  0.081404 -0.011664      2.000000
  0.150078  0.081404 -0.011664      2.000000
 -0.150078  0.081404 -0.011664      2.000000
 -0.107199  0.081404 -0.011664      2.000000
 -0.064319  0.081404 -0.011664      2.000000
 -0.021440  0.081404 -0.011664      2.000000
  0.021440 -0.081404  0.046555      2.000000
  0.064319 -0.081404  0.046555      2.000000
  0.107199 -0.081404  0.046555      2.000000
  0.150078 -0.081404  0.046555      2.000000
 -0.150078 -0.081404  0.046555      2.000000
 -0.107199 -0.081404  0.046555      2.000000
 -0.064319 -0.081404  0.046555      2.000000
 -0.021440 -0.081404  0.046555      2.000000
  0.021440 -0.048843  0.034911      2.000000
  0.064319 -0.048843  0.034911      2.000000
  0.107199 -0.048843  0.034911      2.000000
  0.150078 -0.048843  0.034911      2.000000
 -0.150078 -0.048843  0.034911      2.000000
 -0.107199 -0.048843  0.034911      2.000000
 -0.064319 -0.048843  0.034911      2.000000
 -0.021440 -0.048843  0.034911      2.000000
  0.021440 -0.016281  0.023267      2.000000
  0.064319 -0.016281  0.023267      2.000000
  0.107199 -0.016281  0.023267      2.000000
  0.150078 -0.016281  0.023267      2.000000
 -0.150078 -0.016281  0.023267      2.000000
 -0.107199 -0.016281  0.023267      2.000000
 -0.064319 -0.016281  0.023267      2.000000
 -0.021440 -0.016281  0.023267      2.000000
  0.021440  0.016281  0.046514      2.000000
  0.064319  0.016281  0.046514      2.000000
  0.107199  0.016281  0.046514      2.000000
  0.150078  0.016281  0.046514      2.000000
 -0.150078  0.016281  0.046514      2.000000
 -0.107199  0.016281  0.046514      2.000000
 -0.064319  0.016281  0.046514      2.000000
 -0.021440  0.016281  0.046514      2.000000
  0.021440  0.048843  0.034870      2.000000
  0.064319  0.048843  0.034870      2.000000
  0.107199  0.048843  0.034870      2.000000
  0.150078  0.048843  0.034870      2.000000
[...]
  0.064319 -0.048843  0.104692      2.000000
  0.107199 -0.048843  0.104692      2.000000
  0.150078 -0.048843  0.104692      2.000000
 -0.150078 -0.048843  0.104692      2.000000
 -0.107199 -0.048843  0.104692      2.000000
 -0.064319 -0.048843  0.104692      2.000000
 -0.021440 -0.048843  0.104692      2.000000
  0.021440 -0.016281  0.093049      2.000000
  0.064319 -0.016281  0.093049      2.000000
  0.107199 -0.016281  0.093049      2.000000
  0.150078 -0.016281  0.093049      2.000000
 -0.150078 -0.016281  0.093049      2.000000
 -0.107199 -0.016281  0.093049      2.000000
 -0.064319 -0.016281  0.093049      2.000000
 -0.021440 -0.016281  0.093049      2.000000

 TETIRR: Found    864 inequivalent tetrahedra from     1728

 I would recommend the setting:
   dimension x,y,z NGX =    22 NGY =   38 NGZ =   38
 SYSTEM =  unknown system
 POSCAR =  Li2 Ni2 O4

 Startparameter for this run:
   NWRITE =      2    write-flag & timer
[...]
     15      -2.1699      1.00000
     16      -2.0657      1.00000
     17      -1.1941      1.00000
     18      -0.8932      1.00000
     19      -0.7809      1.00000
     20      -0.6409      1.00000
     21       0.3229      1.00000
     22       0.6236      1.00000
     23       1.0557      1.00000
     24       1.2922      1.00000
     25       1.3812      1.00000
     26       1.5680      1.00000
     27       1.7462      1.00000
     28       2.5485      1.00000
     29       2.6971      1.00000
     30       2.7634      1.00000
     31       3.5058     -0.13881
     32       3.6769      0.00000
     33       6.7686      0.00000
     34       6.9324      0.00000
     35       8.9197      0.00000
     36      11.7695      0.00000
     37      11.7846      0.00000

[...]

 soft charge-density along one line, spin component           1
         0         1         2         3         4         5         6         7         8         9
 total charge-density along one line

[...]

------------------------ aborting loop because EDIFF is reached ----------------------------------------

 total charge

# of ion     s       p       d       tot
  1        2.021   0.054   0.000   2.075
  2        2.021   0.054   0.000   2.075
  3        0.233   6.209   7.848  14.290
  4        0.233   6.209   7.848  14.290
  5        1.569   3.374   0.000   4.943
  6        1.569   3.374   0.000   4.943
  7        1.569   3.374   0.000   4.943
  8        1.569   3.374   0.000   4.943
tot       10.783  26.021  15.696  52.501

 magnetization (x)

[...]

  FORCE on cell =-STRESS in cart. coord.  units (eV):
  Direction    XX          YY          ZZ          XY          YZ          ZX
  Alpha Z   277.14015   277.14015   277.14015
  Ewald   -1282.14980 -1302.94304 -2814.68849     0.00000   -19.73529    -0.00000
  Hartree  1467.18562  1457.58554   181.99740    -0.02333    -9.12275     0.02619
  E(xc)    -383.47632  -383.46999  -383.58730    -0.00027    -0.02435     0.00013
  Local   -1245.74163 -1220.69253  1569.11309     0.07593    25.22107    -0.05810
  n-local  -304.35601  -305.32682  -304.47477     0.01232    -0.59315    -0.00311
  augment   420.78165   422.62425   421.28882    -0.01507     1.20787     0.01453
  Kinetic  1047.18939  1051.79683  1048.49119    -0.06621     3.83544     0.02110
  Fock        0.00000     0.00000     0.00000     0.00000     0.00000     0.00000
  Total      -3.42695    -3.28562    -4.71991    -0.01663     0.78884     0.00074
  in kB     -77.03289   -73.85604  -106.09666    -0.37373    17.73204     0.01660

 VOLUME and BASIS-vectors are now :
  energy-cutoff  :      520.00
  volume of cell :       71.28
      direct lattice vectors                 reciprocal lattice vectors
     2.915150000  0.000000000  0.000000000     0.343035521  0.000000000  0.000000000
     0.000000000  5.118490000  0.000000000     0.000000000  0.195370119 -0.069863274
     0.000000000  1.708168000  4.776830000     0.000000000  0.000000000  0.209343854

[...]

 FORCES acting on ions
    electron-ion (+dipol)            ewald-force                    non-local-force                 convergence-correction
   0.348E-05 0.584E-02 -.648E-04   0.387E-15 0.000E+00 0.000E+00   0.207E-04 0.919E-03 -.358E-03   -.845E-05 -.469E-02 -.289E-04
   0.689E-05 -.597E-02 0.417E-02   0.160E-14 0.000E+00 -.711E-14   -.130E-05 -.886E-03 0.331E-03   0.413E-05 0.476E-02 -.346E-02
   -.119E-03 -.199E-01 -.213E-02   -.367E-14 -.284E-13 0.000E+00   0.508E-04 0.130E-02 -.103E-02   0.292E-04 0.224E-01 0.175E-02
   -.303E-04 0.200E-01 -.190E-01   -.269E-14 -.853E-13 0.000E+00   0.203E-04 -.119E-02 -.121E-03   0.135E-04 -.226E-01 0.204E-01
   -.123E-02 0.296E+01 -.338E+03   0.471E-13 -.328E+01 0.349E+03   0.423E-02 0.446E+00 -.120E+02   0.571E-04 0.759E-02 -.879E-01
   0.118E-02 -.296E+01 0.338E+03   -.593E-13 0.328E+01 -.349E+03   -.414E-02 -.446E+00 0.120E+02   -.774E-04 -.874E-02 0.883E-01
   0.117E-02 -.296E+01 0.338E+03   -.559E-13 0.328E+01 -.349E+03   -.419E-02 -.445E+00 0.120E+02   -.623E-04 -.691E-02 0.878E-01
   -.118E-02 0.296E+01 -.338E+03   0.526E-13 -.328E+01 0.349E+03   0.417E-02 0.445E+00 -.120E+02   0.661E-04 0.812E-02 -.882E-01
   -.193E-03 -.152E-03 -.165E-01   -.200E-13 0.000E+00 0.000E+00   0.151E-03 0.256E-03 -.167E-02   0.220E-04 -.141E-03 0.186E-01

 POSITION                                       TOTAL-FORCE (eV/Angst)
      0.00000      0.00000      0.00000         0.000018      0.002065     -0.000508
      1.45758      2.55925      0.00000         0.000012     -0.002100      0.000982
      0.00000      3.41333      2.38842        -0.000036      0.003783     -0.001457
      1.45758      0.85408      2.38842         0.000006     -0.003794      0.001185
      0.00000      5.11999      3.58262         0.003062      0.140432     -1.364506
      1.45758      4.26591      1.19421        -0.003036     -0.140968      1.364597
      0.00000      1.70666      1.19421        -0.003088     -0.140011      1.362780
      1.45758      2.56075      3.58262         0.003062      0.140594     -1.363073
    total drift:                               -0.000021     -0.000037      0.000444

  FREE ENERGIE OF THE ION-ELECTRON SYSTEM (eV)
  free  energy   TOTEN  =       -38.02162983 eV

  energy  without entropy=      -38.02162983  energy(sigma->0) =      -38.02162983

[...]

 d Force = 0.2323930E+00[ 0.113E+00, 0.352E+00]  d Energy = 0.3230093E+00-0.906E-01
 d Force =-0.9519535E+02[-0.101E+03,-0.892E+02]  d Ewald  = 0.3875885E+02-0.134E+03

 Steepest descent step on ions:
 trial-energy change:   -0.323009  1 .order   -0.365328   -0.640466   -0.090189
  (g-gl).g = 0.640E+00      g.g   = 0.640E+00  gl.gl    = 0.000E+00
 g(Force)  = 0.363E+00   g(Stress)= 0.278E+00 ortho     = 0.000E+00
 gamma     =   0.00000
 trial     =   1.00000
 opt step  =   1.16390  (harmonic =   1.16390) maximal distance =0.07662153
 next E    =   -38.394349   (d E  =  -0.37272)

[...]

 d Force = 0.1519637E-01[ 0.114E-01, 0.190E-01]  d Energy =-0.3309420E-02 0.185E-01
 d Force =-0.1715847E+02[-0.173E+02,-0.170E+02]  d Ewald  = 0.5596457E+01-0.228E+02

[...]

 d Force = 0.5334702E-01[-0.140E-01, 0.121E+00]  d Energy = 0.1624914E+00-0.109E+00
 d Force =-0.6335522E+02[-0.669E+02,-0.598E+02]  d Ewald  =-0.6858726E+02 0.523E+01

 Conjugate gradient step on ions:
 trial-energy change:   -0.162491  1 .order   -0.136618   -0.240489   -0.032747
  (g-gl).g = 0.254E+00      g.g   = 0.239E+00  gl.gl    = 0.640E+00
 g(Force)  = 0.903E-01   g(Stress)= 0.148E+00 ortho     =-0.149E-01
 gamma     =   0.39610
 trial     =   1.03278
 opt step  =   1.12261  (harmonic =   1.19558) maximal distance =0.04009015
 next E    =   -38.505262   (d E  =  -0.16393)

[...]

WARNING in EDDRMM: call to ZHEGV failed, returncode =   8  4 27
 BZINTS: Fermi energy:  4.549106; 62.000000 electrons
         Band energy:-940.497922;  BLOECHL correction:  0.000000

[...]

 d Force =-0.1975278E-02[-0.269E-02,-0.126E-02]  d Energy = 0.1830091E-02-0.381E-02
 d Force =-0.5930262E+01[-0.596E+01,-0.590E+01]  d Ewald  =-0.6502088E+01 0.572E+00

[...]

 d Force = 0.1813343E-01[ 0.169E-02, 0.346E-01]  d Energy = 0.9087159E-01-0.727E-01
 d Force = 0.1351817E+02[ 0.128E+02, 0.143E+02]  d Ewald  =-0.9199761E+02 0.106E+03

 Conjugate gradient step on ions:
 trial-energy change:   -0.090872  1 .order   -0.081746   -0.198744    0.035251
  (g-gl).g = 0.674E-01      g.g   = 0.187E+00  gl.gl    = 0.239E+00
 g(Force)  = 0.403E-01   g(Stress)= 0.147E+00 ortho     = 0.735E-02
 gamma     =   0.28216
 trial     =   1.05075
 opt step  =   0.91935  (harmonic =   0.89245) maximal distance =0.01801926
 next E    =   -38.598709   (d E  =  -0.09306)

[...]

 d Force =-0.4255042E-03[-0.644E-03,-0.207E-03]  d Energy =-0.1030014E-04-0.415E-03
 d Force =-0.1536803E+01[-0.155E+01,-0.153E+01]  d Ewald  = 0.1147171E+02-0.130E+02

[...]

 d Force = 0.7754466E-03[ 0.673E-03, 0.878E-03]  d Energy = 0.6133003E-02-0.536E-02
 d Force =-0.3709014E-01[-0.424E-01,-0.318E-01]  d Ewald  =-0.6058575E+01 0.602E+01

 Conjugate gradient step on ions:
 trial-energy change:   -0.006133  1 .order   -0.006651   -0.009203   -0.004099
  (g-gl).g = 0.514E-02      g.g   = 0.881E-02  gl.gl    = 0.187E+00
 g(Force)  = 0.722E-03   g(Stress)= 0.809E-02 ortho     = 0.615E-02
 gamma     =   0.02750
 trial     =   1.02447
 opt step  =   1.84716  (harmonic =   1.84716) maximal distance =0.00644183
 next E    =   -38.604809   (d E  =  -0.00830)

 FEWALD executed in parallel

 real space projection operators:
  max/ min on nodes  :        127.88         94.45

[...]

 eigenvalue-minimisations  : 18990
 total energy-change (2. order) : 0.2726272E-02  (-0.4959718E-03)
 number of electron      61.9999971 magnetization       0.0000000
 augmentation part       23.3464898 magnetization       0.0000140

[...]

 Broyden mixing:
  rms(total) = 0.11229E-01    rms(broyden)= 0.11209E-01
  rms(prec ) = 0.13007E-01
  weight for this iteration     100.00

 eigenvalues of (default mixing * dielectric matrix)
  average eigenvalue GAMMA=   1.1018
  1.6577  1.6577  0.4805  0.6110

[...]

----------------------------------------- Iteration    9(   6)  ---------------------------------------

[...]

 eigenvalue-minimisations  : 11423
 total energy-change (2. order) :-0.4222260E-04  (-0.2547789E-04)
 number of electron      61.9999971 magnetization       0.0000000
 augmentation part       23.3507271 magnetization       0.0000155

 Free energy of the ion-electron system (eV)
  alpha Z        PSCENC =       289.37764510
  Ewald energy   TEWEN  =     -5277.56300244
  -Hartree energ DENC   =     -3259.12625671
  -exchange      EXHF   =         0.00000000
  -V(xc)+E(xc)   XCENC  =       315.25580540
  PAW double counting   =      8449.79587930    -8731.96019820
  entropy T*S    EENTRO =         0.00000000
  eigenvalues    EBANDS =      -961.49218904
  atomic energy  EATOM  =      9137.10866316
  Solvation  Ediel_sol  =         0.00000000
  free energy    TOTEN  =       -38.60365344 eV

  energy without entropy =      -38.60365344  energy(sigma->0) =      -38.60365344

 average (electrostatic) potential at core
  the test charge radii are     0.7079  0.8614  0.7215
  (the norm of the test charge is              1.0000)
       1 -58.5636       2 -58.5636       3 -83.4012       4 -83.4012       5 -70.3267
       6 -70.3267       7 -70.3263       8 -70.3263

 E-fermi :   4.2049     XC(G=0): -11.6692     alpha+bet :-13.5094

[...]

 spin component 2

[...]

 k-point   144 :      -0.0625   -0.0833    0.4167
  band No.  band energies     occupation
      1     -60.4719      1.00000
      2     -60.4511      1.00000
      3     -60.2672      1.00000
      4     -59.3364      1.00000
      5     -59.3360      1.00000
      6     -58.5859      1.00000
      7     -39.5019      1.00000
      8     -39.4787      1.00000
      9     -14.4003      1.00000
     10     -13.4282      1.00000
     11     -13.3053      1.00000
     12     -12.9027      1.00000
     13      -2.5794      1.00000
     14      -2.1770      1.00000
     15      -1.8103      1.00000
     16      -1.0936      1.00000
     17      -0.9655      1.00000
     18      -0.7121      1.00000
     19      -0.3654      1.00000
     20      -0.1691      1.00000
     21       0.5807      1.00000
     22       0.6718      1.00000
     23       1.4640      1.00000
     24       1.5345      1.00000
     25       1.8559      1.00000
     26       1.9308      1.00000
     27       2.0905      1.00000
     28       2.1653      1.00000
     29       2.8898      1.00000
     30       3.1722      1.00000
     31       3.7459      1.00000
     32       5.4063      0.00000
     33       6.7966      0.00000
     34       7.1122      0.00000
     35      11.4291      0.00000
     36      12.8281      0.00000
     37      13.8345      0.00000

[...]

 soft charge-density along one line, spin component           2
         0         1         2         3         4         5         6         7         8         9
 total charge-density along one line

------------------------ aborting loop because EDIFF is reached ----------------------------------------

[...]

  FORCE on cell =-STRESS in cart. coord.  units (eV):
  Direction    XX          YY          ZZ          XY          YZ          ZX
  Alpha Z   289.37765   289.37765   289.37765
  Ewald    -819.63368 -1283.02550 -3174.90873    -0.24285  -161.43546     0.12024
  Hartree  1803.76308  1548.03735   -92.97503    -0.12468   -62.55443     0.00834
  E(xc)    -383.98156  -384.64760  -384.63403    -0.00042    -0.36950     0.00047
  Local   -2047.33052 -1355.94025  2183.74987     0.35771   206.06507    -0.11657
  n-local  -297.70587  -302.70875  -301.60354    -0.00209    -3.48873     0.00283
  augment   418.41601   427.59099   424.58674     0.00209     6.19725    -0.00269
  Kinetic  1037.36724  1061.33517  1056.51259     0.00740    15.44641    -0.00531
  Fock        0.00000     0.00000     0.00000     0.00000     0.00000     0.00000
  Total       0.27235     0.01905     0.10551    -0.00284    -0.13939     0.00732
  in kB       6.39235     0.44705     2.47650    -0.06668    -3.27173     0.17190

 VOLUME and BASIS-vectors are now :
  energy-cutoff  :      520.00
  volume of cell :       68.26
      direct lattice vectors                 reciprocal lattice vectors
     2.790396043  0.000047706 -0.000191951     0.358372070 -0.000009651  0.000023257
     0.000129520  5.160451791  0.145663790    -0.000008569  0.195923160 -0.075873497
    -0.000261056  1.856099574  4.792884334     0.000014613 -0.005954434  0.210948555

  length of vectors
     2.790396050  5.162507205  5.139732088     0.358372070  0.210101576  0.211032577

 FORCES acting on ions
    electron-ion (+dipol)            ewald-force                    non-local-force                 convergence-correction
   0.727E-04 0.286E-02 -.594E-02   -.680E-04 -.229E-02 0.575E-02   -.404E-05 -.720E-03 0.249E-03   0.347E-06 0.516E-04 -.156E-04
   -.185E-03 -.224E-02 0.108E-01   0.174E-03 0.173E-02 -.106E-01   0.123E-04 0.661E-03 -.313E-03   -.380E-06 -.521E-04 0.190E-04
   0.278E-02 0.110E+00 0.143E-01   -.275E-02 -.112E+00 -.144E-01   -.936E-04 -.342E-03 0.644E-03   0.408E-04 0.577E-03 0.255E-03
   -.286E-02 -.110E+00 -.176E-01   0.283E-02 0.112E+00 0.179E-01   0.967E-04 0.995E-04 -.864E-03   -.390E-04 -.411E-03 -.215E-03
   -.763E-01 0.520E+02 -.414E+03   0.818E-01 -.569E+02 0.428E+03   -.401E-02 0.491E+01 -.131E+02   -.324E-03 0.310E-02 -.264E-01
   0.768E-01 -.520E+02 0.414E+03   -.824E-01 0.569E+02 -.428E+03   0.404E-02 -.491E+01 0.131E+02   0.324E-03 -.317E-02 0.265E-01
   0.790E-01 -.520E+02 0.414E+03   -.848E-01 0.569E+02 -.427E+03   0.413E-02 -.491E+01 0.131E+02   0.319E-03 -.313E-02 0.265E-01
   -.794E-01 0.520E+02 -.414E+03   0.852E-01 -.569E+02 0.428E+03   -.415E-02 0.491E+01 -.131E+02   -.319E-03 0.320E-02 -.265E-01
   -.252E-04 -.369E-04 0.384E-03   0.148E-13 -.426E-13 0.000E+00   0.185E-04 -.309E-03 -.411E-03   0.195E-05 0.164E-03 0.432E-04

 POSITION                                       TOTAL-FORCE (eV/Angst)
     -0.00000      0.00012     -0.00003         0.000002     -0.000073      0.000041
      1.39526      2.58014      0.07278         0.000001      0.000119     -0.000087
     -0.00006      3.50833      2.46921        -0.000020     -0.001838      0.000799
      1.39506      0.92802      2.39641         0.000023      0.001682     -0.000758
     -0.00011      5.33197      3.59757         0.001214      0.027442      0.017954
      1.39524      4.26481      1.41372        -0.001230     -0.027008     -0.018238
     -0.00002      1.68458      1.34097        -0.001292     -0.028519     -0.016477
      1.39502      2.75179      3.52464         0.001302      0.028195      0.016766
    total drift:                               -0.000005     -0.000182      0.000017

  FREE ENERGIE OF THE ION-ELECTRON SYSTEM (eV)
  free  energy   TOTEN  =       -38.60365344 eV

  energy  without entropy=      -38.60365344  energy(sigma->0) =      -38.60365344

 d Force = 0.4415095E-03[ 0.342E-03, 0.541E-03]  d Energy = 0.1007986E-02-0.566E-03
 d Force =-0.3668157E-01[-0.400E-01,-0.334E-01]  d Ewald  =-0.4892496E+01 0.486E+01

 reached required accuracy - stopping structural energy minimisation

 total charge

[...]

 magnetization (x)

# of ion     s       p       d       tot
  1       -0.001  -0.001   0.000  -0.002
  2        0.001   0.001   0.000   0.002
  3       -0.011  -0.006  -1.066  -1.082
  4        0.011   0.006   1.066   1.082
  5       -0.003  -0.144   0.000  -0.147
  6        0.003   0.144   0.000   0.147
  7       -0.003  -0.144   0.000  -0.147
  8        0.003   0.144   0.000   0.147
tot       -0.000  -0.000   0.000   0.000

 BZINTS: Fermi energy:  4.204872; 62.000000 electrons
         Band energy:-961.492189;  BLOECHL correction:  0.000000