 vasp.5.4.1 24Jun15 (build Jan 18 2016 12:20:36) complex

 executed on           IFC91_ompi date 2018.02.25  00:53:55

 INCAR:
 POTCAR:    PAW_PBE Li_sv 10Sep2004
 POTCAR:    PAW_PBE Mn_pv 02Aug2007
 POTCAR:    PAW_PBE Ni_pv 06Sep2000
 POTCAR:    PAW_PBE O 08Apr2002

 POTCAR:    PAW_PBE Li_sv 10Sep2004
   VRHFIN =Li: 1s2s2p

   TITEL  = PAW_PBE Li_sv 10Sep2004
   POMASS =    7.010; ZVAL   =    3.000    mass and valenz
   ENMAX  =  499.034; ENMIN  =  374.276 eV

 POTCAR:    PAW_PBE Mn_pv 02Aug2007
   VRHFIN =Mn: 3p4s3d

   TITEL  = PAW_PBE Mn_pv 02Aug2007
   POMASS =   54.938; ZVAL   =   13.000    mass and valenz
   ENMAX  =  269.864; ENMIN  =  202.398 eV

 POTCAR:    PAW_PBE Ni_pv 06Sep2000
   VRHFIN =Ni:

   TITEL  = PAW_PBE Ni_pv 06Sep2000
   POMASS =   58.690; ZVAL   =   16.000    mass and valenz
   ENMAX  =  367.986; ENMIN  =  275.989 eV

 POTCAR:    PAW_PBE O 08Apr2002
   VRHFIN =O: s2p4

   TITEL  = PAW_PBE O 08Apr2002
   POMASS =   16.000; ZVAL   =    6.000    mass and valenz
   ENMAX  =  400.000; ENMIN  =  300.000 eV

 Optimization of the real space projectors (new method)

 maximal supplied QI-value         = 22.11
 optimisation between [QCUT,QGAM] = [ 11.50, 23.22] = [ 37.02,150.92] Ry
 Optimized for a Real-space Cutoff    1.08 Angstroem

   l    n(q)    QCUT    max X(q) W(low)/X(q) W(high)/X(q)  e(spline)
   0      7    11.497    10.506    0.36E-04    0.62E-04    0.14E-07
   0      7    11.497     8.367    0.65E-04    0.14E-03    0.28E-07
   1      7    11.497     8.983    0.21E-03    0.43E-03    0.90E-07
 Optimization of the real space projectors (new method)

[...]

   l    n(q)    QCUT    max X(q) W(low)/X(q) W(high)/X(q)  e(spline)
   1      9    11.527     2.836    0.16E-04    0.30E-04    0.95E-07
   1      9    11.527     4.023    0.73E-04    0.81E-04    0.21E-06
   2      9    11.527    73.368    0.15E-03    0.29E-03    0.28E-06
   2      9    11.527    69.010    0.15E-03    0.29E-03    0.29E-06
   0      9    11.527    54.797    0.43E-04    0.28E-04    0.85E-07
   0      9    11.527    24.266    0.33E-04    0.24E-04    0.75E-07
 Optimization of the real space projectors (new method)

 maximal supplied QI-value         = 24.76
 optimisation between [QCUT,QGAM] = [ 11.64, 23.27] = [ 37.91,151.63] Ry
 Optimized for a Real-space Cutoff    1.14 Angstroem

   l    n(q)    QCUT    max X(q) W(low)/X(q) W(high)/X(q)  e(spline)
   0      8    11.635    20.381    0.10E-03    0.33E-03    0.24E-06
   0      8    11.635    15.268    0.11E-03    0.35E-03    0.26E-06
   1      7    11.635     5.964    0.24E-03    0.31E-03    0.30E-06
   1      7    11.635     5.382    0.22E-03    0.25E-03    0.26E-06
  PAW_PBE Li_sv 10Sep2004               :
  PAW_PBE Mn_pv 02Aug2007               :
  PAW_PBE Ni_pv 06Sep2000               :
  PAW_PBE O 08Apr2002                   :

 POSCAR: Li2 Mn1 Ni1 O4
  positions in direct lattice
 exchange correlation table for  LEXCH =        8
   RHO(1)=    0.500       N(1)  =     2000
   RHO(2)=  100.500       N(2)  =     4000

 ion  position               nearest neighbor table
   1  0.000  0.000  0.000-   6 2.07   8 2.07   6 2.07   8 2.07   7 2.08   5 2.08
   2  0.500  0.000  0.500-   5 2.07   7 2.07   5 2.07   7 2.07   6 2.08   8 2.08
   3  0.500  0.500  0.000-   5 2.07   7 2.07   5 2.07   7 2.07   6 2.08   8 2.08
   4  0.000  0.500  0.500-   6 2.07   8 2.07   6 2.07   8 2.07   7 2.08   5 2.08
   5  0.000  0.750  0.750-   2 2.07   3 2.07   2 2.07   3 2.07   1 2.08   4 2.08
   6  0.500  0.750  0.250-   1 2.07   4 2.07   1 2.07   4 2.07   3 2.08   2 2.08
   7  0.000  0.250  0.250-   2 2.07   3 2.07   2 2.07   3 2.07   1 2.08   4 2.08
   8  0.500  0.250  0.750-   1 2.07   4 2.07   1 2.07   4 2.07   3 2.08   2 2.08

IMPORTANT INFORMATION: All symmetrisations will be switched off!
NOSYMM: (Re-)initialisation of all symmetry stuff for point group C_1.

 KPOINTS: pymatgen generated KPOINTS with grid den

Automatic generation of k-mesh.
Space group operators:
 irot       det(A)        alpha          n_x          n_y          n_z        tau_x        tau_y        tau_z
    1     1.000000     0.000001     1.000000     0.000000     0.000000     0.000000     0.000000     0.000000

 Subroutine IBZKPT returns following result:

 Found    144 irreducible k-points:

 Following reciprocal coordinates:
            Coordinates               Weight
  0.062500  0.083333  0.083333      2.000000
  0.187500  0.083333  0.083333      2.000000
  0.312500  0.083333  0.083333      2.000000
  0.437500  0.083333  0.083333      2.000000
 -0.437500  0.083333  0.083333      2.000000
 -0.312500  0.083333  0.083333      2.000000
 -0.187500  0.083333  0.083333      2.000000
 -0.062500  0.083333  0.083333      2.000000
  0.062500  0.250000  0.083333      2.000000
  0.187500  0.250000  0.083333      2.000000
  0.312500  0.250000  0.083333      2.000000
  0.437500  0.250000  0.083333      2.000000
 -0.437500  0.250000  0.083333      2.000000
 -0.312500  0.250000  0.083333      2.000000
 -0.187500  0.250000  0.083333      2.000000
 -0.062500  0.250000  0.083333      2.000000
  0.062500  0.416667  0.083333      2.000000
  0.187500  0.416667  0.083333      2.000000
  0.312500  0.416667  0.083333      2.000000
  0.437500  0.416667  0.083333      2.000000
 -0.437500  0.416667  0.083333      2.000000
 -0.312500  0.416667  0.083333      2.000000
 -0.187500  0.416667  0.083333      2.000000
 -0.062500  0.416667  0.083333      2.000000
  0.062500 -0.416667  0.083333      2.000000
  0.187500 -0.416667  0.083333      2.000000
  0.312500 -0.416667  0.083333      2.000000
  0.437500 -0.416667  0.083333      2.000000
 -0.437500 -0.416667  0.083333      2.000000
 -0.312500 -0.416667  0.083333      2.000000
 -0.187500 -0.416667  0.083333      2.000000
 -0.062500 -0.416667  0.083333      2.000000
  0.062500 -0.250000  0.083333      2.000000
  0.187500 -0.250000  0.083333      2.000000
  0.312500 -0.250000  0.083333      2.000000
  0.437500 -0.250000  0.083333      2.000000
 -0.437500 -0.250000  0.083333      2.000000
 -0.312500 -0.250000  0.083333      2.000000
 -0.187500 -0.250000  0.083333      2.000000
 -0.062500 -0.250000  0.083333      2.000000
  0.062500 -0.083333  0.083333      2.000000
  0.187500 -0.083333  0.083333      2.000000
  0.312500 -0.083333  0.083333      2.000000
  0.437500 -0.083333  0.083333      2.000000
 -0.437500 -0.083333  0.083333      2.000000
 -0.312500 -0.083333  0.083333      2.000000
 -0.187500 -0.083333  0.083333      2.000000
 -0.062500 -0.083333  0.083333      2.000000
  0.062500  0.083333  0.250000      2.000000
  0.187500  0.083333  0.250000      2.000000
  0.312500  0.083333  0.250000      2.000000
  0.437500  0.083333  0.250000      2.000000
 -0.437500  0.083333  0.250000      2.000000
 -0.312500  0.083333  0.250000      2.000000
 -0.187500  0.083333  0.250000      2.000000
 -0.062500  0.083333  0.250000      2.000000
  0.062500  0.250000  0.250000      2.000000
  0.187500  0.250000  0.250000      2.000000
  0.312500  0.250000  0.250000      2.000000
  0.437500  0.250000  0.250000      2.000000
[...]
  0.187500 -0.250000  0.416667      2.000000
  0.312500 -0.250000  0.416667      2.000000
  0.437500 -0.250000  0.416667      2.000000
 -0.437500 -0.250000  0.416667      2.000000
 -0.312500 -0.250000  0.416667      2.000000
 -0.187500 -0.250000  0.416667      2.000000
 -0.062500 -0.250000  0.416667      2.000000
  0.062500 -0.083333  0.416667      2.000000
  0.187500 -0.083333  0.416667      2.000000
  0.312500 -0.083333  0.416667      2.000000
  0.437500 -0.083333  0.416667      2.000000
 -0.437500 -0.083333  0.416667      2.000000
 -0.312500 -0.083333  0.416667      2.000000
 -0.187500 -0.083333  0.416667      2.000000
 -0.062500 -0.083333  0.416667      2.000000

 Following cartesian coordinates:
            Coordinates               Weight
  0.021440  0.016281  0.011623      2.000000
  0.064319  0.016281  0.011623      2.000000
  0.107199  0.016281  0.011623      2.000000
  0.150078  0.016281  0.011623      2.000000
 -0.150078  0.016281  0.011623      2.000000
 -0.107199  0.016281  0.011623      2.000000
 -0.064319  0.016281  0.011623      2.000000
 -0.021440  0.016281  0.011623      2.000000
  0.021440  0.048843 -0.000020      2.000000
  0.064319  0.048843 -0.000020      2.000000
  0.107199  0.048843 -0.000020      2.000000
  0.150078  0.048843 -0.000020      2.000000
 -0.150078  0.048843 -0.000020      2.000000
 -0.107199  0.048843 -0.000020      2.000000
 -0.064319  0.048843 -0.000020      2.000000
 -0.021440  0.048843 -0.000020      2.000000
  0.021440  0.081404 -0.011664      2.000000
  0.064319  0.081404 -0.011664      2.000000
  0.107199  0.081404 -0.011664      2.000000
  0.150078  0.081404 -0.011664      2.000000
 -0.150078  0.081404 -0.011664      2.000000
 -0.107199  0.081404 -0.011664      2.000000
 -0.064319  0.081404 -0.011664      2.000000
 -0.021440  0.081404 -0.011664      2.000000
  0.021440 -0.081404  0.046555      2.000000
  0.064319 -0.081404  0.046555      2.000000
  0.107199 -0.081404  0.046555      2.000000
  0.150078 -0.081404  0.046555      2.000000
 -0.150078 -0.081404  0.046555      2.000000
 -0.107199 -0.081404  0.046555      2.000000
 -0.064319 -0.081404  0.046555      2.000000
 -0.021440 -0.081404  0.046555      2.000000
  0.021440 -0.048843  0.034911      2.000000
  0.064319 -0.048843  0.034911      2.000000
  0.107199 -0.048843  0.034911      2.000000
  0.150078 -0.048843  0.034911      2.000000
 -0.150078 -0.048843  0.034911      2.000000
 -0.107199 -0.048843  0.034911      2.000000
 -0.064319 -0.048843  0.034911      2.000000
 -0.021440 -0.048843  0.034911      2.000000
  0.021440 -0.016281  0.023267      2.000000
  0.064319 -0.016281  0.023267      2.000000
  0.107199 -0.016281  0.023267      2.000000
  0.150078 -0.016281  0.023267      2.000000
 -0.150078 -0.016281  0.023267      2.000000
 -0.107199 -0.016281  0.023267      2.000000
 -0.064319 -0.016281  0.023267      2.000000
 -0.021440 -0.016281  0.023267      2.000000
  0.021440  0.016281  0.046514      2.000000
  0.064319  0.016281  0.046514      2.000000
  0.107199  0.016281  0.046514      2.000000
  0.150078  0.016281  0.046514      2.000000
 -0.150078  0.016281  0.046514      2.000000
 -0.107199  0.016281  0.046514      2.000000
 -0.064319  0.016281  0.046514      2.000000
 -0.021440  0.016281  0.046514      2.000000
  0.021440  0.048843  0.034870      2.000000
  0.064319  0.048843  0.034870      2.000000
  0.107199  0.048843  0.034870      2.000000
  0.150078  0.048843  0.034870      2.000000
[...]
  0.064319 -0.048843  0.104692      2.000000
  0.107199 -0.048843  0.104692      2.000000
  0.150078 -0.048843  0.104692      2.000000
 -0.150078 -0.048843  0.104692      2.000000
 -0.107199 -0.048843  0.104692      2.000000
 -0.064319 -0.048843  0.104692      2.000000
 -0.021440 -0.048843  0.104692      2.000000
  0.021440 -0.016281  0.093049      2.000000
  0.064319 -0.016281  0.093049      2.000000
  0.107199 -0.016281  0.093049      2.000000
  0.150078 -0.016281  0.093049      2.000000
 -0.150078 -0.016281  0.093049      2.000000
 -0.107199 -0.016281  0.093049      2.000000
 -0.064319 -0.016281  0.093049      2.000000
 -0.021440 -0.016281  0.093049      2.000000

[...]
 BZINTS: Fermi energy:  4.267893; 59.000000 electrons
         Band energy:-847.692254;  BLOECHL correction: -0.008899

[...]

 average (electrostatic) potential at core
  the test charge radii are     0.7079  0.9577  0.8614  0.7215
  (the norm of the test charge is              1.0000)
       1 -57.7618       2 -58.4774       3 -71.7964       4 -82.1858       5 -70.6110
       6 -69.6757       7 -70.6110       8 -69.6757

 E-fermi :   4.2676     XC(G=0): -11.5263     alpha+bet :-13.5598

 spin component 1

 k-point     1 :       0.0625    0.0833    0.0833
  band No.  band energies     occupation
      1     -59.6734      1.00000
      2     -59.5586      1.00000
      3     -59.5361      1.00000
      4     -42.9608      1.00000
      5     -42.9344      1.00000
      6     -42.8458      1.00000
      7     -39.4054      1.00000
      8     -38.6905      1.00000
      9     -14.2351      1.00000
     10     -13.4116      1.00000
     11     -12.7479      1.00000
     12     -12.5367      1.00000
     13      -1.7475      1.00000
     14      -1.5072      1.00000
     15      -1.3732      1.00000
     16      -1.3164      1.00000
     17      -0.6637      1.00000
     18       0.0776      1.00000
     19       0.5937      1.00000
     20       0.6980      1.00000
     21       1.2937      1.00000
     22       1.5909      1.00000
     23       1.7503      1.00000
     24       1.9154      1.00000
     25       2.9440      1.00000
     26       3.2470      1.00000
     27       3.2731      1.00000
     28       3.9408      1.00000
     29       4.1987      1.01898
     30       6.2208      0.00000
     31       7.2140      0.00000
     32       7.2693      0.00000
     33       8.6806      0.00000
     34       9.6281      0.00000
     35      11.5071      0.00000

[...]

 soft charge-density along one line, spin component           1
         0         1         2         3         4         5         6         7         8         9
 total charge-density along one line

[...]

------------------------ aborting loop because EDIFF is reached ----------------------------------------

 total charge

# of ion     s       p       d       tot
  1        2.021   0.057   0.000   2.078
  2        2.018   0.050   0.000   2.069
  3        0.283   6.309   4.739  11.332
  4        0.227   6.207   7.929  14.363
  5        1.566   3.411   0.000   4.977
  6        1.561   3.421   0.000   4.982
  7        1.566   3.411   0.000   4.977
  8        1.561   3.421   0.000   4.982
tot       10.805  26.288  12.668  49.760

 magnetization (x)

[...]

  FORCE on cell =-STRESS in cart. coord.  units (eV):
  Direction    XX          YY          ZZ          XY          YZ          ZX
  Alpha Z   253.34086   253.34086   253.34086
  Ewald   -1169.30098 -2274.90705 -1344.18365    -0.00000   365.11989    -0.00000
  Hartree  1152.23298   254.84444  1004.93462    -0.00630   297.82574     0.00768
  E(xc)    -343.95299  -344.08561  -343.97753    -0.00005     0.00402     0.00005
  Local    -948.87531  1051.84569  -627.51109     0.01733  -662.91132    -0.01778
  n-local  -251.00026  -250.88911  -251.14431     0.00179     0.30931    -0.00088
  augment   341.85416   341.69721   342.07246    -0.00573     0.14454     0.00698
  Kinetic   964.51661   964.04800   964.35973    -0.01140    -0.18227     0.00719
  Fock        0.00000     0.00000     0.00000     0.00000     0.00000     0.00000
  Total      -1.18495    -4.10557    -2.10890    -0.00437     0.30992     0.00323
  in kB     -26.63592   -92.28714   -47.40497    -0.09820     6.96647     0.07263

 VOLUME and BASIS-vectors are now :
  energy-cutoff  :      520.00
  volume of cell :       71.28
      direct lattice vectors                 reciprocal lattice vectors
     2.915150000  0.000000000  0.000000000     0.343035521  0.000000000  0.000000000
     0.000000000  5.118490000  0.000000000     0.000000000  0.195370119 -0.069863274
     0.000000000  1.708168000  4.776830000     0.000000000  0.000000000  0.209343854

[...]

 FORCES acting on ions
    electron-ion (+dipol)            ewald-force                    non-local-force                 convergence-correction
   0.876E-05 0.348E-04 -.429E-04   0.317E-14 0.000E+00 0.000E+00   -.100E-04 -.275E-04 0.266E-04   0.576E-05 0.144E-04 0.141E-04
   0.220E-04 -.397E-04 -.130E-05   0.343E-14 -.142E-13 0.000E+00   -.146E-04 0.153E-04 0.272E-04   0.984E-06 0.762E-05 -.299E-04
   0.285E-04 0.119E-04 -.125E-03   -.268E-14 -.284E-13 -.568E-13   -.101E-04 0.163E-04 -.138E-04   -.140E-04 -.393E-04 0.133E-03
   -.220E-04 0.765E-04 0.827E-04   -.292E-14 -.853E-13 0.000E+00   -.315E-04 0.780E-04 0.479E-04   0.309E-04 -.116E-03 -.131E-03
   0.394E-02 -.284E+03 0.606E+02   -.172E-13 0.296E+03 -.677E+02   -.629E-02 -.128E+02 0.883E+01   -.270E-04 -.185E-01 0.174E-01
   0.775E-03 -.285E+03 0.147E+03   -.590E-13 0.297E+03 -.148E+03   0.224E-03 -.132E+02 0.951E+00   -.471E-04 -.133E-01 -.101E-02
   -.381E-02 0.284E+03 -.606E+02   0.713E-14 -.296E+03 0.677E+02   0.615E-02 0.128E+02 -.883E+01   -.109E-05 0.185E-01 -.174E-01
   -.702E-03 0.285E+03 -.147E+03   0.543E-13 -.297E+03 0.148E+03   -.299E-03 0.132E+02 -.951E+00   0.376E-04 0.133E-01 0.989E-03
   0.238E-03 -.119E-03 -.213E-03   -.137E-13 0.000E+00 0.000E+00   -.285E-03 0.334E-03 0.345E-03   -.139E-04 -.137E-03 -.778E-04

 POSITION                                       TOTAL-FORCE (eV/Angst)
      0.00000      0.00000      0.00000         0.000012      0.000012     -0.000009
      1.45758      0.85408      2.38842         0.000016     -0.000027     -0.000011
      1.45758      2.55925      0.00000         0.000012     -0.000021     -0.000012
      0.00000      3.41333      2.38842        -0.000015      0.000028     -0.000007
      0.00000      5.11999      3.58262        -0.002376     -1.329055      1.745155
      1.45758      4.26591      1.19421         0.000960     -1.725992     -0.704017
      0.00000      1.70666      1.19421         0.002346      1.329058     -1.745163
      1.45758      2.56075      3.58262        -0.000955      1.725996      0.704064
    total drift:                               -0.000061      0.000078      0.000054

  FREE ENERGIE OF THE ION-ELECTRON SYSTEM (eV)
  free  energy   TOTEN  =       -45.56385754 eV

  energy  without entropy=      -45.56385754  energy(sigma->0) =      -45.56385754

[...]

 d Force = 0.5048700E+00[ 0.226E+00, 0.783E+00]  d Energy = 0.5847056E+00-0.798E-01
 d Force =-0.9554024E+02[-0.105E+03,-0.864E+02]  d Ewald  =-0.1111745E+02-0.844E+02

 Steepest descent step on ions:
 trial-energy change:   -0.584706  1 .order   -0.554311   -0.937636   -0.170986
  (g-gl).g = 0.938E+00      g.g   = 0.938E+00  gl.gl    = 0.000E+00
 g(Force)  = 0.800E+00   g(Stress)= 0.138E+00 ortho     = 0.000E+00
 gamma     =   0.00000
 trial     =   1.00000
 opt step  =   1.17433  (harmonic =   1.22303) maximal distance =0.09886804
 next E    =   -46.163628   (d E  =  -0.59977)

[...]

 d Force = 0.2806043E-01[ 0.161E-01, 0.400E-01]  d Energy = 0.1057471E-01 0.175E-01
 d Force =-0.1893312E+02[-0.192E+02,-0.186E+02]  d Ewald  =-0.3530811E+01-0.154E+02

[...]

 d Force = 0.9918282E-02[-0.455E-01, 0.654E-01]  d Energy = 0.8274003E-01-0.728E-01
 d Force =-0.3409170E+02[-0.356E+02,-0.326E+02]  d Ewald  =-0.1014796E+03 0.674E+02

 Conjugate gradient step on ions:
 trial-energy change:   -0.082740  1 .order   -0.104954   -0.217989    0.008081
  (g-gl).g = 0.273E+00      g.g   = 0.225E+00  gl.gl    = 0.938E+00
 g(Force)  = 0.352E-01   g(Stress)= 0.190E+00 ortho     =-0.485E-01
 gamma     =   0.29153
 trial     =   1.03487
 opt step  =   0.95385  (harmonic =   0.99788) maximal distance =0.03741370
 next E    =   -46.242205   (d E  =  -0.08307)

[...]

 d Force = 0.3149824E-02[ 0.280E-02, 0.350E-02]  d Energy = 0.1634578E-02 0.152E-02
 d Force = 0.2741202E+01[ 0.273E+01, 0.275E+01]  d Ewald  = 0.7934361E+01-0.519E+01

[...]

 d Force = 0.4627605E-02[-0.245E-02, 0.117E-01]  d Energy = 0.1094243E-01-0.631E-02
 d Force = 0.7781636E+01[ 0.764E+01, 0.792E+01]  d Ewald  =-0.1922914E+02 0.270E+02

 Conjugate gradient step on ions:
 trial-energy change:   -0.010942  1 .order   -0.012667   -0.030254    0.004920
  (g-gl).g =-0.152E-02      g.g   = 0.297E-01  gl.gl    = 0.225E+00
 g(Force)  = 0.112E-01   g(Stress)= 0.185E-01 ortho     =-0.456E-02
 gamma     =  -0.00675
 trial     =   1.01866
 opt step  =   0.83117  (harmonic =   0.87617) maximal distance =0.00864910
 next E    =   -46.254918   (d E  =  -0.01141)

 FEWALD executed in parallel

 real space projection operators:
  max/ min on nodes  :        129.73         95.98

[...]

 eigenvalue-minimisations  : 20355
 total energy-change (2. order) :-0.5740962E-02  (-0.2312558E-01)
 number of electron      58.9999996 magnetization      -1.0000001
 augmentation part       21.1185550 magnetization      -0.8426458

[...]

 Broyden mixing:
  rms(total) = 0.98529E-02    rms(broyden)= 0.98526E-02
  rms(prec ) = 0.11036E-01
  weight for this iteration     100.00

 eigenvalues of (default mixing * dielectric matrix)
  average eigenvalue GAMMA=   0.9297
  1.9105  0.8481  0.5222  0.4381

[...]

----------------------------------------- Iteration    7(   6)  ---------------------------------------

[...]

 eigenvalue-minimisations  : 10240
 total energy-change (2. order) : 0.2588050E-04  (-0.6532076E-05)
 number of electron      58.9999996 magnetization      -1.0000001
 augmentation part       21.1584474 magnetization      -0.8473112

 Free energy of the ion-electron system (eV)
  alpha Z        PSCENC =       253.45233863
  Ewald energy   TEWEN  =     -4664.50649695
  -Hartree energ DENC   =     -2535.88068120
  -exchange      EXHF   =         0.00000000
  -V(xc)+E(xc)   XCENC  =       295.96305329
  PAW double counting   =      7218.11587833    -7426.37858449
  entropy T*S    EENTRO =         0.00000000
  eigenvalues    EBANDS =      -848.32436271
  atomic energy  EATOM  =      7661.30377365
  Solvation  Ediel_sol  =         0.00000000
  free energy    TOTEN  =       -46.25508145 eV

  energy without entropy =      -46.25508145  energy(sigma->0) =      -46.25508145

 average (electrostatic) potential at core
  the test charge radii are     0.7079  0.9577  0.8614  0.7215
  (the norm of the test charge is              1.0000)
       1 -57.8219       2 -59.2166       3 -71.7144       4 -82.0702       5 -70.5384
       6 -69.5463       7 -70.5384       8 -69.5463

 E-fermi :   4.4863     XC(G=0): -11.4548     alpha+bet :-13.5658

[...]

 spin component 2

[...]

 k-point   144 :      -0.0625   -0.0833    0.4167
  band No.  band energies     occupation
      1     -57.4482      1.00000
      2     -57.3399      1.00000
      3     -57.3383      1.00000
      4     -46.6392      1.00000
      5     -46.6009      1.00000
      6     -46.4350      1.00000
      7     -40.1380      1.00000
      8     -38.7444      1.00000
      9     -14.0361      1.00000
     10     -13.3418      1.00000
     11     -12.5352      1.00000
     12     -12.4219      1.00000
     13      -2.2379      1.00000
     14      -1.7924      1.00000
     15      -1.0210      1.00000
     16      -0.7196      1.00000
     17      -0.4208      1.00000
     18      -0.2380      1.00000
     19       0.1960      1.00000
     20       0.8551      1.00000
     21       1.0155      1.00000
     22       1.5189      1.00000
     23       2.2129      1.00000
     24       2.3329      1.00000
     25       2.4906      1.00000
     26       2.6065      1.00000
     27       2.8815      1.00000
     28       3.1730      1.00000
     29       3.5404      1.00000
     30       3.7035      1.00000
     31       5.7171      0.00000
     32       5.8659      0.00000
     33       8.3917      0.00000
     34       8.5843      0.00000
     35      11.4474      0.00000

[...]

 soft charge-density along one line, spin component           2
         0         1         2         3         4         5         6         7         8         9
 total charge-density along one line

------------------------ aborting loop because EDIFF is reached ----------------------------------------

[...]

  FORCE on cell =-STRESS in cart. coord.  units (eV):
  Direction    XX          YY          ZZ          XY          YZ          ZX
  Alpha Z   253.45234   253.45234   253.45234
  Ewald   -1000.18299 -2492.19015 -1172.14008    -0.01570   526.06082     0.01774
  Hartree  1295.61204    84.57935  1155.74480    -0.01254   418.69169     0.01202
  E(xc)    -344.23212  -344.51601  -344.23395    -0.00002     0.14527     0.00001
  Local   -1261.85359  1433.11320  -950.86417     0.02805  -943.68457    -0.02959
  n-local  -247.56306  -248.75614  -247.40329    -0.00022     0.97571    -0.00020
  augment   342.38513   344.30550   342.12820    -0.00003    -0.17494     0.00026
  Kinetic   961.73152   970.02960   963.14767     0.00045    -2.18230    -0.00031
  Fock        0.00000     0.00000     0.00000     0.00000     0.00000     0.00000
  Total      -0.65073     0.01769    -0.16848    -0.00001    -0.16833    -0.00007
  in kB     -14.63388     0.39789    -3.78881    -0.00017    -3.78537    -0.00151

 VOLUME and BASIS-vectors are now :
  energy-cutoff  :      520.00
  volume of cell :       71.24
      direct lattice vectors                 reciprocal lattice vectors
     2.927811177 -0.000018947 -0.000013751     0.341552081  0.000002453  0.000001596
    -0.000036266  5.050682104 -0.001317231     0.000000956  0.197975010 -0.069205175
    -0.000034604  1.684019051  4.817467570     0.000000975  0.000054132  0.207559019

  length of vectors
     2.927811177  5.050682276  5.103323815     0.341552081  0.209722343  0.207559026

 FORCES acting on ions
    electron-ion (+dipol)            ewald-force                    non-local-force                 convergence-correction
   0.885E-04 0.240E-03 0.102E-03   -.836E-04 -.242E-03 -.110E-03   -.675E-05 -.432E-05 0.566E-05   -.182E-07 0.173E-05 0.389E-06
   0.669E-04 -.568E-03 -.136E-03   -.622E-04 0.559E-03 0.134E-03   -.490E-05 0.113E-04 0.435E-05   0.110E-06 -.789E-06 -.574E-06
   -.206E-04 0.369E-04 -.608E-04   0.237E-04 -.279E-04 0.418E-04   -.185E-05 0.219E-04 0.147E-04   -.609E-06 -.122E-04 -.484E-05
   0.523E-04 0.249E-03 -.585E-03   -.420E-04 -.177E-03 0.554E-03   0.172E-06 -.191E-04 0.247E-04   -.508E-05 -.182E-04 0.115E-04
   -.622E-02 -.320E+03 0.118E+03   0.668E-02 0.332E+03 -.126E+03   -.175E-03 -.115E+02 0.756E+01   0.102E-05 0.721E-02 -.748E-02
   0.119E-01 -.329E+03 0.110E+03   -.125E-01 0.341E+03 -.111E+03   0.514E-03 -.126E+02 0.594E+00   -.425E-05 0.696E-02 0.307E-02
   0.621E-02 0.320E+03 -.118E+03   -.668E-02 -.332E+03 0.126E+03   0.176E-03 0.115E+02 -.756E+01   -.858E-06 -.722E-02 0.748E-02
   -.120E-01 0.329E+03 -.110E+03   0.127E-01 -.341E+03 0.111E+03   -.530E-03 0.126E+02 -.594E+00   0.522E-05 -.696E-02 -.307E-02
   0.406E-04 0.615E-04 -.100E-03   -.963E-15 0.000E+00 0.284E-13   -.284E-04 0.145E-04 0.835E-04   -.447E-05 -.302E-04 0.606E-05

 POSITION                                       TOTAL-FORCE (eV/Angst)
      0.00000      0.00000     -0.00000        -0.000003     -0.000010     -0.000000
      1.46389      0.84200      2.40873        -0.000001     -0.000004      0.000003
      1.46389      2.52533     -0.00066        -0.000000      0.000013     -0.000008
     -0.00004      3.36735      2.40807         0.000004      0.000029      0.000006
     -0.00008      4.97410      3.74254         0.000291     -0.006195      0.016400
      1.46393      4.08084      1.14140        -0.000117     -0.137302      0.035963
      0.00001      1.76060      1.07362        -0.000291      0.006175     -0.016388
      1.46381      2.65384      3.67474         0.000116      0.137293     -0.035976
    total drift:                                0.000008      0.000046     -0.000011

  FREE ENERGIE OF THE ION-ELECTRON SYSTEM (eV)
  free  energy   TOTEN  =       -46.25508145 eV

  energy  without entropy=      -46.25508145  energy(sigma->0) =      -46.25508145

 d Force = 0.2512633E-03[ 0.551E-04, 0.447E-03]  d Energy = 0.6265146E-03-0.375E-03
 d Force =-0.1396609E+01[-0.140E+01,-0.139E+01]  d Ewald  = 0.3544124E+01-0.494E+01

 reached required accuracy - stopping structural energy minimisation

 total charge

[...]

 magnetization (x)

# of ion     s       p       d       tot
  1        0.000   0.002   0.000   0.002
  2        0.001   0.001   0.000   0.002
  3       -0.023  -0.034  -3.121  -3.177
  4       -0.000   0.002   1.728   1.729
  5        0.004   0.115   0.000   0.119
  6        0.006   0.093   0.000   0.099
  7        0.004   0.115   0.000   0.119
  8        0.006   0.093   0.000   0.099
tot       -0.002   0.387  -1.393  -1.008

 BZINTS: Fermi energy:  4.486342; 59.000000 electrons
         Band energy:-848.324363;  BLOECHL correction:  0.000000