 vasp.5.4.1 24Jun15 (build Jan 18 2016 12:20:36) complex

 executed on           IFC91_ompi date 2016.06.08  21:12:31

 INCAR:
 POTCAR:    PAW_PBE Li 17Jan2003
 POTCAR:   PAW_PBE Co 06Sep2000
 POTCAR:   PAW_PBE Ni 06Sep2000
 POTCAR:   PAW_PBE O 08Apr2002

 POTCAR:    PAW_PBE Li 17Jan2003
   VRHFIN =Li: s1p0

   TITEL  = PAW_PBE Li 17Jan2003
   POMASS =    7.010; ZVAL   =    1.000    mass and valenz
   ENMAX  =  140.000; ENMIN  =  100.000 eV
   QCUT   =   -2.932; QGAM   =    5.865    optimization parameters

   Description
     l     E      TYP  RCUT    TYP  RCUT
     0   .000     23  2.050
     0  2.000     23  2.050
     1   .000     23  2.050
     2   .000     23  2.050

 POTCAR:   PAW_PBE Co 06Sep2000
   VRHFIN =Co: d8 s1

   TITEL  = PAW_PBE Co 06Sep2000
   POMASS =   58.933; ZVAL   =    9.000    mass and valenz
   ENMAX  =  267.969; ENMIN  =  200.977 eV
   QCUT   =   -4.438; QGAM   =    8.876    optimization parameters

[...]

 POTCAR:   PAW_PBE Ni 06Sep2000
   VRHFIN =Ni:

   TITEL  = PAW_PBE Ni 06Sep2000
   POMASS =   58.690; ZVAL   =   10.000    mass and valenz
   ENMAX  =  269.533; ENMIN  =  202.150 eV
   QCUT   =   -4.451; QGAM   =    8.902    optimization parameters

[...]

 POTCAR:   PAW_PBE O 08Apr2002
   VRHFIN =O: s2p4

   TITEL  = PAW_PBE O 08Apr2002
   POMASS =   16.000; ZVAL   =    6.000    mass and valenz
   ENMAX  =  400.000; ENMIN  =  300.000 eV
   QCUT   =   -5.520; QGAM   =   11.041    optimization parameters

   Description
     l     E      TYP  RCUT    TYP  RCUT
     0   .000     23  1.200
     0  -.700     23  1.200
     1   .000     23  1.520
     1   .600     23  1.520
     2   .000      7  1.500

 Optimization of the real space projectors (new method)

 maximal supplied QI-value         = 18.33
 optimisation between [QCUT,QGAM] = [ 11.55, 23.28] = [ 37.34,151.76] Ry
 Optimized for a Real-space Cutoff    1.14 Angstroem

   l    n(q)    QCUT    max X(q) W(low)/X(q) W(high)/X(q)  e(spline)
   0      8    11.548    30.666    0.12E-04    0.21E-04    0.93E-08
   0      8    11.548    39.284    0.15E-03    0.55E-04    0.54E-07
   1      7    11.548     4.214    0.21E-03    0.27E-03    0.42E-07
 Optimization of the real space projectors (new method)

[...]

   l    n(q)    QCUT    max X(q) W(low)/X(q) W(high)/X(q)  e(spline)
   2      9    11.539     4.811    0.20E-04    0.14E-04    0.45E-07
   2      9    11.539    15.146    0.24E-03    0.12E-03    0.20E-06
   0     10    11.539    14.357    0.18E-04    0.12E-05    0.14E-07
   0     10    11.539    43.282    0.39E-04    0.17E-04    0.23E-06
   1     10    11.539     5.514    0.99E-05    0.13E-04    0.19E-07
   1     10    11.539     7.697    0.38E-04    0.79E-04    0.91E-07
 Optimization of the real space projectors (new method)

 maximal supplied QI-value         = 24.76
 optimisation between [QCUT,QGAM] = [ 11.64, 23.27] = [ 37.91,151.63] Ry
 Optimized for a Real-space Cutoff    1.08 Angstroem

   l    n(q)    QCUT    max X(q) W(low)/X(q) W(high)/X(q)  e(spline)
   0      7    11.635     4.192    0.54E-04    0.80E-04    0.26E-07
   0      7    11.635     8.473    0.70E-04    0.40E-03    0.21E-06
   1      7    11.635     2.474    0.39E-04    0.14E-03    0.23E-07
   1      7    11.635     3.912    0.25E-03    0.37E-03    0.22E-06
  PAW_PBE Li 17Jan2003                  :
 PAW_PBE Co 06Sep2000                   :
 PAW_PBE Ni 06Sep2000                   :
 PAW_PBE O 08Apr2002                    :

 POSCAR: Li2 Co1 Ni1 O4
  positions in direct lattice
 exchange correlation table for  LEXCH =        8
   RHO(1)=    0.500       N(1)  =     2000
   RHO(2)=  100.500       N(2)  =     4000

 ion  position               nearest neighbor table
   1  0.500  0.500  0.000-   6 2.05   8 2.05   7 2.06   5 2.06   5 2.06   7 2.06   3 2.89   3 2.89
                             3 2.89   3 2.89   4 2.91   4 2.91   2 2.93   2 2.93   2 2.93   2 2.93
   2  0.000  0.500  0.500-   5 2.05   7 2.05   6 2.06   8 2.06   6 2.06   8 2.06   4 2.89   4 2.89
                             4 2.89   4 2.89   3 2.91   3 2.91   1 2.93   1 2.93   1 2.93   1 2.93
   3  0.000  0.000  0.000-   5 2.05   7 2.05   6 2.06   8 2.06   6 2.06   8 2.06   1 2.89   1 2.89
                             1 2.89   1 2.89   2 2.91   2 2.91   4 2.93   4 2.93   4 2.93   4 2.93
   4  0.500  0.000  0.500-   6 2.05   8 2.05   7 2.06   5 2.06   5 2.06   7 2.06   2 2.89   2 2.89
                             2 2.89   2 2.89   1 2.91   1 2.91   3 2.93   3 2.93   3 2.93   3 2.93
   5  0.000  0.750  0.750-   2 2.05   3 2.05   1 2.06   4 2.06   1 2.06   4 2.06
   6  0.500  0.750  0.250-   1 2.05   4 2.05   3 2.06   2 2.06   2 2.06   3 2.06
   7  0.000  0.250  0.250-   2 2.05   3 2.05   1 2.06   4 2.06   1 2.06   4 2.06
   8  0.500  0.250  0.750-   1 2.05   4 2.05   3 2.06   2 2.06   2 2.06   3 2.06

  LATTYP: Found a simple monoclinic cell.
 ALAT       =     8.2146770600
 B/A-ratio  =     0.3552178593
 C/A-ratio  =     1.5361420883
 COS(beta)  =    -0.9729755608

  Lattice vectors:

 A1 = (   0.0000000000,  -6.6756000000,  -4.7872000000)
 A2 = (  -2.9180000000,   0.0000000000,   0.0000000000)
 A3 = (   0.0000000000,  11.6756000000,   4.7872000000)

Analysis of symmetry for initial positions (statically):
 Subroutine PRICEL returns:
 Original cell was already a primitive cell.

 Routine SETGRP: Setting up the symmetry group for a
 simple monoclinic supercell.

 Subroutine GETGRP returns: Found  4 space group operations
 (whereof  4 operations were pure point group operations)
 out of a pool of  4 trial point group operations.

The static configuration has the point symmetry C_2h.

Analysis of symmetry for dynamics (positions and initial velocities):
 Subroutine PRICEL returns:
 Original cell was already a primitive cell.

[...]

The dynamic configuration has the point symmetry C_2h.

Analysis of structural, dynamic, and magnetic symmetry:
 Subroutine PRICEL returns:
 Original cell was already a primitive cell.

 Routine SETGRP: Setting up the symmetry group for a
 simple monoclinic supercell.

 Subroutine GETGRP returns: Found  4 space group operations
 (whereof  4 operations were pure point group operations)
 out of a pool of  4 trial point group operations.

The magnetic configuration has the point symmetry C_2h.

 Subroutine INISYM returns: Found  4 space group operations
 (whereof  4 operations are pure point group operations),
 and found     1 'primitive' translations

 KPOINTS: pymatgen generated KPOINTS with grid den

Automatic generation of k-mesh.
Space group operators:
 irot       det(A)        alpha          n_x          n_y          n_z        tau_x        tau_y        tau_z
    1     1.000000     0.000001     1.000000     0.000000     0.000000     0.000000     0.000000     0.000000
    2    -1.000000     0.000001     1.000000     0.000000     0.000000     0.000000     0.000000     0.000000
    3     1.000000   180.000000     1.000000     0.000000     0.000000     0.000000     0.000000     0.000000
    4    -1.000000   180.000000     1.000000     0.000000     0.000000     0.000000     0.000000     0.000000

 Subroutine IBZKPT returns following result:

 Found     72 irreducible k-points:

 Following reciprocal coordinates:
            Coordinates               Weight
  0.062500  0.083333  0.083333      4.000000
  0.187500  0.083333  0.083333      4.000000
  0.312500  0.083333  0.083333      4.000000
  0.437500  0.083333  0.083333      4.000000
  0.062500  0.250000  0.083333      4.000000
  0.187500  0.250000  0.083333      4.000000
  0.312500  0.250000  0.083333      4.000000
  0.437500  0.250000  0.083333      4.000000
  0.062500  0.416667  0.083333      4.000000
  0.187500  0.416667  0.083333      4.000000
  0.312500  0.416667  0.083333      4.000000
  0.437500  0.416667  0.083333      4.000000
  0.062500 -0.416667  0.083333      4.000000
  0.187500 -0.416667  0.083333      4.000000
  0.312500 -0.416667  0.083333      4.000000
  0.437500 -0.416667  0.083333      4.000000
  0.062500 -0.250000  0.083333      4.000000
  0.187500 -0.250000  0.083333      4.000000
  0.312500 -0.250000  0.083333      4.000000
  0.437500 -0.250000  0.083333      4.000000
  0.062500 -0.083333  0.083333      4.000000
  0.187500 -0.083333  0.083333      4.000000
  0.312500 -0.083333  0.083333      4.000000
  0.437500 -0.083333  0.083333      4.000000
  0.062500  0.083333  0.250000      4.000000
  0.187500  0.083333  0.250000      4.000000
  0.312500  0.083333  0.250000      4.000000
  0.437500  0.083333  0.250000      4.000000
  0.062500  0.250000  0.250000      4.000000
  0.187500  0.250000  0.250000      4.000000
  0.312500  0.250000  0.250000      4.000000
  0.437500  0.250000  0.250000      4.000000
  0.062500  0.416667  0.250000      4.000000
  0.187500  0.416667  0.250000      4.000000
  0.312500  0.416667  0.250000      4.000000
  0.437500  0.416667  0.250000      4.000000
  0.062500 -0.416667  0.250000      4.000000
  0.187500 -0.416667  0.250000      4.000000
  0.312500 -0.416667  0.250000      4.000000
  0.437500 -0.416667  0.250000      4.000000
  0.062500 -0.250000  0.250000      4.000000
  0.187500 -0.250000  0.250000      4.000000
  0.312500 -0.250000  0.250000      4.000000
  0.437500 -0.250000  0.250000      4.000000
  0.062500 -0.083333  0.250000      4.000000
  0.187500 -0.083333  0.250000      4.000000
  0.312500 -0.083333  0.250000      4.000000
  0.437500 -0.083333  0.250000      4.000000
  0.062500  0.083333  0.416667      4.000000
  0.187500  0.083333  0.416667      4.000000
  0.312500  0.083333  0.416667      4.000000
  0.437500  0.083333  0.416667      4.000000
  0.062500  0.250000  0.416667      4.000000
  0.187500  0.250000  0.416667      4.000000
  0.312500  0.250000  0.416667      4.000000
  0.437500  0.250000  0.416667      4.000000
  0.062500  0.416667  0.416667      4.000000
  0.187500  0.416667  0.416667      4.000000
  0.312500  0.416667  0.416667      4.000000
  0.437500  0.416667  0.416667      4.000000
  0.062500 -0.416667  0.416667      4.000000
  0.187500 -0.416667  0.416667      4.000000
  0.312500 -0.416667  0.416667      4.000000
  0.437500 -0.416667  0.416667      4.000000
  0.062500 -0.250000  0.416667      4.000000
  0.187500 -0.250000  0.416667      4.000000
  0.312500 -0.250000  0.416667      4.000000
  0.437500 -0.250000  0.416667      4.000000
  0.062500 -0.083333  0.416667      4.000000
  0.187500 -0.083333  0.416667      4.000000
  0.312500 -0.083333  0.416667      4.000000
  0.437500 -0.083333  0.416667      4.000000

 Following cartesian coordinates:
            Coordinates               Weight
  0.021419  0.016667  0.011574      4.000000
  0.064256  0.016667  0.011574      4.000000
  0.107094  0.016667  0.011574      4.000000
  0.149931  0.016667  0.011574      4.000000
  0.021419  0.050000 -0.000093      4.000000
  0.064256  0.050000 -0.000093      4.000000
  0.107094  0.050000 -0.000093      4.000000
  0.149931  0.050000 -0.000093      4.000000
  0.021419  0.083333 -0.011761      4.000000
  0.064256  0.083333 -0.011761      4.000000
  0.107094  0.083333 -0.011761      4.000000
  0.149931  0.083333 -0.011761      4.000000
  0.021419 -0.083333  0.046576      4.000000
  0.064256 -0.083333  0.046576      4.000000
[...]
     28      11.0371      0.00000
     29      11.1244      0.00000
     30      13.0418      0.00000
     31      15.5266      0.00000
     32      15.8175      0.00000
     33      16.8997      0.00000
     34      17.1749      0.00000
     35      18.0900      0.00000
     36      18.3856      0.00000
     37      18.5192      0.00000
     38      18.7245      0.00000
     39      21.0432      0.00000
     40      21.2294      0.00000
     41      21.2877      0.00000
     42      22.3152      0.00000
     43      22.6347      0.00000
     44      24.6600      0.00000
     45      24.9603      0.00000
     46      25.1336      0.00000
     47      26.2949      0.00000
     48      27.5626      0.00000

[...]

 soft charge-density along one line, spin component           1
         0         1         2         3         4         5         6         7         8         9
 total charge-density along one line

[...]

------------------------ aborting loop because EDIFF is reached ----------------------------------------

 total charge

# of ion     s       p       d       tot
  1        0.100   0.208   0.000   0.309
  2        0.094   0.200   0.000   0.295
  3        0.344   0.460   7.163   7.967
  4        0.371   0.479   8.190   9.040
  5        1.567   3.377   0.000   4.944
  6        1.564   3.384   0.000   4.948
  7        1.567   3.377   0.000   4.944
  8        1.564   3.384   0.000   4.948
tot        7.173  14.869  15.353  37.395

 magnetization (x)

[...]

  FORCE on cell =-STRESS in cart. coord.  units (eV):
  Direction    XX          YY          ZZ          XY          YZ          ZX
  Alpha Z   192.12196   192.12196   192.12196
  Ewald    -702.85374 -1274.33992  -768.35424    -0.00000   205.93808     0.00000
  Hartree   521.44883    68.60304   466.49045    -0.00000   161.04298    -0.00000
  E(xc)    -224.34605  -224.40034  -224.32594     0.00000     0.02993    -0.00000
  Local    -446.11928   576.02717  -326.44776     0.00000  -367.13045    -0.00000
  n-local  -152.99792  -153.12232  -153.11468    -0.26261    -0.03277    -0.13217
  augment   127.79292   128.12746   127.96310     0.00000     0.16992     0.00000
  Kinetic   680.02109   681.91816   680.48501    -0.83557     0.57439     0.49607
  Fock        0.00000     0.00000     0.00000     0.00000     0.00000     0.00000
  Total      -4.93218    -5.06479    -5.18211     0.00000     0.59208     0.00000
  in kB    -113.13916  -116.18096  -118.87214     0.00000    13.58177     0.00000

 VOLUME and BASIS-vectors are now :
  energy-cutoff  :      520.00
  volume of cell :       69.85
      direct lattice vectors                 reciprocal lattice vectors
     2.918000000  0.000000000  0.000000000     0.342700480  0.000000000  0.000000000
     0.000000000  5.000000000  0.000000000     0.000000000  0.200000000 -0.070003342
     0.000000000  1.675600000  4.787200000     0.000000000  0.000000000  0.208890374

[...]

 FORCES acting on ions
    electron-ion (+dipol)            ewald-force                    non-local-force                 convergence-correction
   -.861E-15 0.363E-12 0.177E-12   -.352E-15 0.000E+00 0.178E-14   0.000E+00 0.000E+00 0.000E+00   0.970E-17 0.516E-15 0.595E-15
   -.426E-15 -.688E-14 -.145E-14   -.808E-15 0.000E+00 0.000E+00   0.000E+00 0.000E+00 0.000E+00   0.366E-16 -.822E-15 -.551E-15
   -.300E-14 0.394E-13 -.261E-13   -.521E-14 0.142E-13 -.284E-13   0.000E+00 0.331E-23 0.000E+00   0.220E-13 -.218E-13 -.593E-13
   0.323E-12 0.134E-11 -.251E-11   -.127E-14 0.142E-13 -.426E-13   0.000E+00 -.827E-24 0.000E+00   0.352E-14 0.391E-13 0.167E-13
   -.273E-14 0.204E+03 -.864E+02   -.587E-14 -.215E+03 0.890E+02   -.347E-17 0.130E+02 -.250E+01   0.598E-14 -.172E-01 -.304E-01
   0.110E-12 0.205E+03 -.560E+02   0.197E-14 -.216E+03 0.612E+02   0.173E-17 0.127E+02 -.669E+01   -.523E-14 -.278E-01 0.529E-01
   -.881E-14 -.204E+03 0.864E+02   0.161E-13 0.215E+03 -.890E+02   0.347E-17 -.130E+02 0.250E+01   0.848E-14 0.172E-01 0.304E-01
   0.120E-12 -.205E+03 0.560E+02   -.200E-14 0.216E+03 -.612E+02   -.173E-17 -.127E+02 0.669E+01   -.777E-14 0.278E-01 -.529E-01
   0.536E-12 0.190E-11 -.389E-11   0.257E-14 0.284E-13 -.142E-13   0.000E+00 0.000E+00 0.000E+00   0.270E-13 0.266E-13 -.968E-13

 POSITION                                       TOTAL-FORCE (eV/Angst)
      1.45900      2.50000      0.00000         0.000000     -0.000000     -0.000000
      0.00000      3.33780      2.39360         0.000000     -0.000000     -0.000000
      0.00000      0.00000      0.00000         0.000000      0.000000     -0.000000
      1.45900      0.83780      2.39360         0.000000      0.000000     -0.000000
      0.00000      5.00670      3.59040         0.000000      1.946410      0.039669
      1.45900      4.16890      1.19680         0.000000      1.807984     -1.490651
      0.00000      1.66890      1.19680         0.000000     -1.946410     -0.039669
      1.45900      2.50670      3.59040         0.000000     -1.807984      1.490651
    total drift:                                0.000000      0.000000     -0.000000

  FREE ENERGIE OF THE ION-ELECTRON SYSTEM (eV)
  free  energy   TOTEN  =       -41.86404039 eV

  energy  without entropy=      -41.86404039  energy(sigma->0) =      -41.86404039

[...]

 BZINTS: Fermi energy:  4.020407; 45.000000 electrons
         Band energy: -95.979754;  BLOECHL correction: -0.009347

[...]

 d Force = 0.4673317E+00[ 0.685E-01, 0.866E+00]  d Energy = 0.6562428E+00-0.189E+00
 d Force =-0.9541825E+02[-0.107E+03,-0.837E+02]  d Ewald  =-0.9896171E+01-0.855E+02

 Steepest descent step on ions:
 trial-energy change:   -0.656243  1 .order   -0.597899   -1.363028    0.167231
  (g-gl).g = 0.136E+01      g.g   = 0.136E+01  gl.gl    = 0.000E+00
 g(Force)  = 0.895E+00   g(Stress)= 0.468E+00 ortho     = 0.000E+00
 gamma     =   0.00000
 trial     =   1.00000
 opt step  =   0.90954  (harmonic =   0.89072) maximal distance =0.08540571
 next E    =   -42.527804   (d E  =  -0.66376)

[...]

 d Force =-0.1082774E-01[-0.152E-01,-0.642E-02]  d Energy = 0.8965244E-02-0.198E-01
 d Force = 0.9949871E+01[ 0.985E+01, 0.101E+02]  d Ewald  = 0.1930485E+01 0.802E+01

[...]

 Conjugate gradient step on ions:
 trial-energy change:   -0.080719  1 .order   -0.080783   -0.115228   -0.046338
  (g-gl).g = 0.129E+00      g.g   = 0.118E+00  gl.gl    = 0.136E+01
 g(Force)  = 0.424E-01   g(Stress)= 0.760E-01 ortho     =-0.110E-01
 gamma     =   0.09492
 trial     =   0.98191
 opt step  =   1.64238  (harmonic =   1.64238) maximal distance =0.05375441
 next E    =   -42.625616   (d E  =  -0.09637)

[...]

 d Force = 0.5864105E-02[-0.241E-02, 0.141E-01]  d Energy = 0.1800113E-01-0.121E-01
 d Force =-0.1995217E+02[-0.202E+02,-0.197E+02]  d Ewald  =-0.3783356E+02 0.179E+02

[...]

 d Force = 0.8048428E-02[ 0.563E-02, 0.105E-01]  d Energy = 0.1208410E-01-0.404E-02
 d Force = 0.1765577E+01[ 0.174E+01, 0.179E+01]  d Ewald  =-0.7739816E+01 0.951E+01

 Conjugate gradient step on ions:
 trial-energy change:   -0.012084  1 .order   -0.012342   -0.016437   -0.008247
  (g-gl).g = 0.748E-02      g.g   = 0.146E-01  gl.gl    = 0.118E+00
 g(Force)  = 0.957E-02   g(Stress)= 0.503E-02 ortho     = 0.251E-02
 gamma     =   0.06319
 trial     =   1.11400
 opt step  =   2.23561  (harmonic =   2.23561) maximal distance =0.02363902
 next E    =   -42.644463   (d E  =  -0.01649)

[...]

 d Force = 0.3087534E-02[ 0.503E-03, 0.567E-02]  d Energy = 0.1467580E-02 0.162E-02
 d Force = 0.1719093E+01[ 0.169E+01, 0.175E+01]  d Ewald  =-0.7790433E+01 0.951E+01

[...]

 d Force = 0.3181449E-02[ 0.248E-03, 0.612E-02]  d Energy = 0.2701640E-02 0.480E-03
 d Force =-0.8438763E+01[-0.855E+01,-0.833E+01]  d Ewald  =-0.9243241E+01 0.804E+00

 Conjugate gradient step on ions:
 trial-energy change:   -0.002702  1 .order   -0.004423   -0.008651   -0.000194
  (g-gl).g = 0.956E-02      g.g   = 0.740E-02  gl.gl    = 0.146E-01
 g(Force)  = 0.427E-02   g(Stress)= 0.313E-02 ortho     =-0.143E-02
 gamma     =   0.65461
 trial     =   1.33832
 opt step  =   1.36907  (harmonic =   1.36907) maximal distance =0.01810768
 next E    =   -42.645945   (d E  =  -0.00442)

 FEWALD executed in parallel

[...]

 eigenvalue-minimisations  :  6506
 total energy-change (2. order) :-0.2932187E-05  (-0.1082248E-05)
 number of electron      45.0000002 magnetization       1.0000001
 augmentation part       13.8006467 magnetization       0.9628130

[...]

 Broyden mixing:
  rms(total) = 0.12843E-02    rms(broyden)= 0.12807E-02
  rms(prec ) = 0.19815E-02
  weight for this iteration     100.00

 eigenvalues of (default mixing * dielectric matrix)
  average eigenvalue GAMMA=   1.5327
  4.1352  1.1045  0.2516  0.6397

[...]

----------------------------------------- Iteration    9(   6)  ---------------------------------------

[...]

 eigenvalue-minimisations  :  6307
 total energy-change (2. order) : 0.7570250E-05  (-0.8425778E-06)
 number of electron      45.0000002 magnetization       1.0000001
 augmentation part       13.8009979 magnetization       0.9629317

 Free energy of the ion-electron system (eV)
  alpha Z        PSCENC =       199.13691008
  Ewald energy   TEWEN  =     -2619.18818161
  -Hartree energ DENC   =     -1203.05087112
  -exchange      EXHF   =         0.00000000
  -V(xc)+E(xc)   XCENC  =       153.81832095
  PAW double counting   =      2771.59793637    -2858.48816626
  entropy T*S    EENTRO =         0.00000000
  eigenvalues    EBANDS =      -117.95524713
  atomic energy  EATOM  =      3631.48514882
  Solvation  Ediel_sol  =         0.00000000
  free energy    TOTEN  =       -42.64414990 eV

  energy without entropy =      -42.64414990  energy(sigma->0) =      -42.64414990

 average (electrostatic) potential at core
  the test charge radii are     0.9748  1.0452  0.9791  0.7215
  (the norm of the test charge is              1.0000)
       1 -24.7191       2 -25.1835       3 -42.9625       4 -43.9211       5 -71.6568
       6 -71.1814       7 -71.6568       8 -71.1814

 E-fermi :   3.1307     XC(G=0): -11.4233     alpha+bet :-12.8027

[...]

 spin component 2

[...]

 k-point    72 :       0.4375   -0.0833    0.4167
  band No.  band energies     occupation
      1     -14.4725      1.00000
      2     -14.3760      1.00000
      3     -13.8521      1.00000
      4     -13.8398      1.00000
      5      -3.3282      1.00000
      6      -3.0286      1.00000
      7      -1.6246      1.00000
      8      -1.5076      1.00000
      9      -1.3570      1.00000
     10      -1.1757      1.00000
     11      -0.7803      1.00000
     12      -0.3027      1.00000
     13       0.3119      1.00000
     14       0.4264      1.00000
     15       0.5994      1.00000
     16       0.6880      1.00000
     17       0.8634      1.00000
     18       1.0436      1.00000
     19       1.1466      1.00000
     20       1.7365      1.00000
     21       2.1323      1.00000
     22       2.2809      1.00000
     23       5.3348      0.00000
     24       5.5782      0.00000
     25       6.2185      0.00000
     26       6.6215      0.00000
     27      12.7389      0.00000
     28      13.2668      0.00000
     29      14.2507      0.00000
     30      14.5995      0.00000
     31      15.1804      0.00000
     32      15.5146      0.00000
     33      16.0855      0.00000
     34      16.2539      0.00000
     35      17.5829      0.00000
     36      17.6443      0.00000
     37      19.0257      0.00000
     38      19.3085      0.00000
     39      19.8604      0.00000
     40      20.1437      0.00000
     41      21.4662      0.00000
     42      22.2732      0.00000
     43      22.7507      0.00000
     44      23.8135      0.00000
     45      25.6929      0.00000
     46      26.1128      0.00000
     47      29.6736      0.00000
     48      30.1451      0.00000

[...]

 soft charge-density along one line, spin component           2
         0         1         2         3         4         5         6         7         8         9
 total charge-density along one line

------------------------ aborting loop because EDIFF is reached ----------------------------------------

[...]

  FORCE on cell =-STRESS in cart. coord.  units (eV):
  Direction    XX          YY          ZZ          XY          YZ          ZX
  Alpha Z   199.13691   199.13691   199.13691
  Ewald    -465.62602 -1538.16450  -615.40203     0.00000   354.92335    -0.00000
  Hartree   718.20027  -119.86723   604.71256    -0.00000   287.47254    -0.00000
  E(xc)    -225.77393  -226.09386  -225.79755     0.00000     0.11469    -0.00000
  Local    -883.51667  1014.81777  -623.32142    -0.00000  -643.12038     0.00000
  n-local  -150.92789  -153.52546  -151.34193    -0.07477    -0.15652    -0.13397
  augment   127.01468   129.61015   127.47708     0.00000     0.16080     0.00000
  Kinetic   681.61381   694.02636   684.61722    -1.45104     1.01049     0.53283
  Fock        0.00000     0.00000     0.00000     0.00000     0.00000     0.00000
  Total       0.12116    -0.05986     0.08085     0.00000     0.40497     0.00000
  in kB       2.88067    -1.42320     1.92230     0.00000     9.62883     0.00000

 VOLUME and BASIS-vectors are now :
  energy-cutoff  :      520.00
  volume of cell :       67.38
      direct lattice vectors                 reciprocal lattice vectors
     2.845126715  0.000000000  0.000000000     0.351478194  0.000000000  0.000000000
     0.000000000  5.036757945 -0.002601921     0.000000000  0.198503637 -0.071189649
     0.000000000  1.686076778  4.701419088     0.000000000  0.000109858  0.212662337

  length of vectors
     2.845126715  5.036758617  4.994616736     0.351478194  0.210883048  0.212662365

 FORCES acting on ions
    electron-ion (+dipol)            ewald-force                    non-local-force                 convergence-correction
   0.899E-15 0.447E-12 0.147E-12   0.211E-15 -.178E-14 -.178E-14   0.000E+00 0.000E+00 0.000E+00   -.445E-17 -.327E-15 0.757E-15
   0.556E-15 -.891E-14 -.133E-14   0.488E-15 0.355E-14 0.000E+00   0.000E+00 0.646E-26 0.000E+00   -.918E-17 -.803E-15 -.328E-15
   0.281E-14 0.377E-13 -.153E-13   0.862E-16 -.284E-13 0.284E-13   0.000E+00 -.775E-25 0.000E+00   -.657E-14 0.152E-14 -.257E-13
   0.318E-12 0.152E-11 -.206E-11   -.889E-14 -.284E-13 -.114E-12   0.000E+00 -.155E-24 0.000E+00   -.173E-13 0.127E-13 -.473E-13
   -.139E-13 0.275E+03 -.925E+02   -.152E-13 -.288E+03 0.961E+02   -.139E-16 0.123E+02 -.369E+01   0.287E-14 0.270E-02 -.528E-02
   0.104E-12 0.268E+03 -.110E+03   0.337E-14 -.278E+03 0.116E+03   0.000E+00 0.104E+02 -.634E+01   -.156E-14 0.249E-03 0.381E-02
   -.121E-13 -.275E+03 0.925E+02   0.663E-14 0.288E+03 -.961E+02   0.139E-16 -.123E+02 0.369E+01   0.343E-14 -.270E-02 0.528E-02
   0.112E-12 -.268E+03 0.110E+03   0.611E-15 0.278E+03 -.116E+03   0.000E+00 -.104E+02 0.634E+01   -.235E-14 -.249E-03 -.381E-02
   0.512E-12 0.318E-11 -.256E-11   -.127E-13 -.568E-13 0.284E-13   0.000E+00 0.355E-14 0.888E-15   -.215E-13 0.588E-13 -.860E-13

 POSITION                                       TOTAL-FORCE (eV/Angst)
      1.42256      2.51838     -0.00130         0.000000      0.000000      0.000000
     -0.00000      3.36142      2.34941         0.000000      0.000000      0.000000
     -0.00000     -0.00000     -0.00000         0.000000      0.000000      0.000000
      1.42256      0.84304      2.35071         0.000000      0.000000      0.000000
     -0.00000      5.22266      3.52333         0.000000     -0.021124     -0.054464
      1.42256      4.26865      1.07081         0.000000     -0.008790     -0.032804
      0.00000      1.50017      1.17548        -0.000000      0.021124      0.054464
      1.42256      2.45419      3.62801         0.000000      0.008790      0.032804
    total drift:                                0.000000      0.000000     -0.000000

  FREE ENERGIE OF THE ION-ELECTRON SYSTEM (eV)
  free  energy   TOTEN  =       -42.64414990 eV

  energy  without entropy=      -42.64414990  energy(sigma->0) =      -42.64414990

 d Force = 0.3814749E-05[ 0.186E-05, 0.577E-05]  d Energy =-0.7230967E-04 0.761E-04
 d Force =-0.1960592E+00[-0.196E+00,-0.196E+00]  d Ewald  =-0.2164830E+00 0.204E-01

 reached required accuracy - stopping structural energy minimisation

 total charge

[...]

 magnetization (x)

# of ion     s       p       d       tot
  1        0.003   0.003   0.000   0.007
  2        0.000   0.000   0.000   0.000
  3       -0.001   0.001  -0.192  -0.192
  4        0.008   0.006   1.386   1.400
  5        0.003  -0.121   0.000  -0.118
  6        0.003   0.023   0.000   0.027
  7        0.003  -0.121   0.000  -0.118
  8        0.003   0.023   0.000   0.027
tot        0.023  -0.184   1.194   1.033

 BZINTS: Fermi energy:  3.130720; 45.000000 electrons
         Band energy:-117.955247;  BLOECHL correction: -0.008884